
     Program PWSCF v.7.5 starts on 14Aug2025 at 12:39: 5 
        Git branch: develop
        Last git commit: 52cec044b6073bb1436dfc7b948fda05d221b036-dirty
        Last git commit date: Thu Aug 14 14:40:49 2025 +0000
        Last git commit subject: Merge branch 'plot_2d' into 'develop'

     This program is part of the open-source Quantum ESPRESSO suite
     for quantum simulation of materials; please cite
         "P. Giannozzi et al., J. Phys.:Condens. Matter 21 395502 (2009);
         "P. Giannozzi et al., J. Phys.:Condens. Matter 29 465901 (2017);
         "P. Giannozzi et al., J. Chem. Phys. 152 154105 (2020);
          URL http://www.quantum-espresso.org", 
     in publications or presentations arising from this work. More details at
     http://www.quantum-espresso.org/quote

     Parallel version (MPI & OpenMP), running on       1 processor cores
     Number of MPI processes:                 1
     Threads/MPI process:                     1

     MPI processes distributed on     1 nodes
     3581 MiB available memory on the printing compute node when the environment starts
 
     Reading input from scf.in
Warning: card &CELL ignored
Warning: card     CELL_DOFREE     = 'SHAPE' ignored
Warning: card     CELL_DYNAMICS   = 'BFGS' ignored

     Current dimensions of program PWSCF are:
     Max number of different atomic species (ntypx) = **
     Max number of k-points (npk) =  40000
     Max angular momentum in pseudopotentials (lmaxx) =  4
     file Fe.pz-n-kjpaw_psl.1.0.0.UPF: wavefunction(s)  4S 4P 3D renormalized
     file Fe.pz-n-kjpaw_psl.1.0.0.UPF: wavefunction(s)  4S 4P 3D renormalized
     file Fe.pz-n-kjpaw_psl.1.0.0.UPF: wavefunction(s)  4S 4P 3D renormalized
     file Fe.pz-n-kjpaw_psl.1.0.0.UPF: wavefunction(s)  4S 4P 3D renormalized
     file Mg.pz-spnl-kjpaw_psl.1.0.0.UPF: wavefunction(s)  2P renormalized
     file O.pz-n-kjpaw_psl.1.0.0.UPF: wavefunction(s)  2S 2P renormalized
     Message from routine setup:
     using ibrav=0 with symmetry is DISCOURAGED, use correct ibrav instead
 
     Subspace diagonalization in iterative solution of the eigenvalue problem:
     a serial algorithm will be used

 
     G-vector sticks info
     --------------------
     sticks:   dense  smooth     PW     G-vecs:    dense   smooth      PW
     Sum        1925    1925    483                63123    63123    7919
 
     Using Slab Decomposition
 


     bravais-lattice index     =            0
     lattice parameter (alat)  =       7.1418  a.u.
     unit-cell volume          =     355.1957 (a.u.)^3
     number of atoms/cell      =           16
     number of atomic types    =            6
     number of electrons       =       120.00
     number of Kohn-Sham states=           72
     kinetic-energy cutoff     =     120.0000  Ry
     charge density cutoff     =     480.0000  Ry
     scf convergence threshold =      1.0E-04
     mixing beta               =       0.3000
     number of iterations used =            8  plain     mixing
     Exchange-correlation= SLA  PZ   NOGX NOGC
                           (   1   1   0   0   0   0   0)

     GPU acceleration is ACTIVE.  1 visible GPUs per MPI rank
     GPU-aware MPI enabled

     Hubbard projectors: atomic
     Hubbard parameters of DFT+U (Dudarev formulation) in eV:
     U(Fe1-3d) = 10.0800
     U(Fe2-3d) = 10.0800
     U(Fe3-3d) = 10.0700
     U(Fe4-3d) = 10.0800

     Internal variables: lda_plus_u = T, lda_plus_u_kind = 0

     Internal variables: orbital_resolved = F, hub_pot_fix = F, apply_U =  F

     celldm(1)=   7.141768  celldm(2)=   0.000000  celldm(3)=   0.000000
     celldm(4)=   0.000000  celldm(5)=   0.000000  celldm(6)=   0.000000

     crystal axes: (cart. coord. in units of alat)
               a(1) = (   0.999489   0.023506   0.021680 )  
               a(2) = (   0.110528   0.993652   0.021695 )  
               a(3) = (   0.110516   0.101285   0.988729 )  

     reciprocal axes: (cart. coord. in units 2 pi/alat)
               b(1) = (  1.005283 -0.109614 -0.101138 )  
               b(2) = ( -0.021583  1.010998 -0.101154 )  
               b(3) = ( -0.021570 -0.019780  1.015837 )  


     PseudoPot. # 1 for Fe read from file:
     ./pseudo/Fe.pz-n-kjpaw_psl.1.0.0.UPF
     MD5 check sum: a8dc51d14a18dd029873f5b986a858d6
     Pseudo is Projector augmented-wave + core cor, Zval =  8.0
     Generated using 'atomic' code by A. Dal Corso  v.7.4
     Shape of augmentation charge: PSQ
     Using radial grid of 1191 points,  6 beta functions with: 
                l(1) =   0
                l(2) =   0
                l(3) =   1
                l(4) =   1
                l(5) =   2
                l(6) =   2
     Q(r) pseudized with 0 coefficients 


     PseudoPot. # 2 for Fe read from file:
     ./pseudo/Fe.pz-n-kjpaw_psl.1.0.0.UPF
     MD5 check sum: a8dc51d14a18dd029873f5b986a858d6
     Pseudo is Projector augmented-wave + core cor, Zval =  8.0
     Generated using 'atomic' code by A. Dal Corso  v.7.4
     Shape of augmentation charge: PSQ
     Using radial grid of 1191 points,  6 beta functions with: 
                l(1) =   0
                l(2) =   0
                l(3) =   1
                l(4) =   1
                l(5) =   2
                l(6) =   2
     Q(r) pseudized with 0 coefficients 


     PseudoPot. # 3 for Fe read from file:
     ./pseudo/Fe.pz-n-kjpaw_psl.1.0.0.UPF
     MD5 check sum: a8dc51d14a18dd029873f5b986a858d6
     Pseudo is Projector augmented-wave + core cor, Zval =  8.0
     Generated using 'atomic' code by A. Dal Corso  v.7.4
     Shape of augmentation charge: PSQ
     Using radial grid of 1191 points,  6 beta functions with: 
                l(1) =   0
                l(2) =   0
                l(3) =   1
                l(4) =   1
                l(5) =   2
                l(6) =   2
     Q(r) pseudized with 0 coefficients 


     PseudoPot. # 4 for Fe read from file:
     ./pseudo/Fe.pz-n-kjpaw_psl.1.0.0.UPF
     MD5 check sum: a8dc51d14a18dd029873f5b986a858d6
     Pseudo is Projector augmented-wave + core cor, Zval =  8.0
     Generated using 'atomic' code by A. Dal Corso  v.7.4
     Shape of augmentation charge: PSQ
     Using radial grid of 1191 points,  6 beta functions with: 
                l(1) =   0
                l(2) =   0
                l(3) =   1
                l(4) =   1
                l(5) =   2
                l(6) =   2
     Q(r) pseudized with 0 coefficients 


     PseudoPot. # 5 for Mg read from file:
     ./pseudo/Mg.pz-spnl-kjpaw_psl.1.0.0.UPF
     MD5 check sum: 4367ebea4603ec5ad50444de3db6fdaf
     Pseudo is Projector augmented-wave + core cor, Zval = 10.0
     Generated using 'atomic' code by A. Dal Corso  v.7.4
     Shape of augmentation charge: PSQ
     Using radial grid of 1129 points,  4 beta functions with: 
                l(1) =   0
                l(2) =   0
                l(3) =   1
                l(4) =   1
     Q(r) pseudized with 0 coefficients 


     PseudoPot. # 6 for O  read from file:
     ./pseudo/O.pz-n-kjpaw_psl.1.0.0.UPF
     MD5 check sum: c83fdfaee9d65950df12d90cca182e0d
     Pseudo is Projector augmented-wave + core cor, Zval =  6.0
     Generated using 'atomic' code by A. Dal Corso  v.7.4
     Shape of augmentation charge: PSQ
     Using radial grid of 1095 points,  4 beta functions with: 
                l(1) =   0
                l(2) =   0
                l(3) =   1
                l(4) =   1
     Q(r) pseudized with 0 coefficients 


     atomic species   valence    mass     pseudopotential
     Fe1               8.00    55.84500     Fe( 1.00)
     Fe2               8.00    55.84500     Fe( 1.00)
     Fe3               8.00    55.84500     Fe( 1.00)
     Fe4               8.00    55.84500     Fe( 1.00)
     Mg               10.00    24.30500     Mg( 1.00)
     O                 6.00    15.99900     O ( 1.00)

     Starting magnetic structure 
     atomic species   magnetization
     Fe1             0.500
     Fe2             0.500
     Fe3             0.500
     Fe4             0.500
     Mg              0.000
     O               0.000

      2 Sym. Ops., with inversion, found



   Cartesian axes

     site n.     atom                  positions (alat units)
         1        Fe1    tau(   1) = (   0.0000000   0.0000000   0.0000000  )
         2        Fe2    tau(   2) = (   0.1105223   0.5474686   0.5052120  )
         3        Fe3    tau(   3) = (   0.5550024   0.0623958   0.5052046  )
         4        Fe4    tau(   4) = (   0.5550084   0.5085791   0.0216878  )
         5        Mg     tau(   5) = (   0.0552581   0.0506427   0.4943644  )
         6        Mg     tau(   6) = (   0.0552641   0.4968259   0.0108476  )
         7        Mg     tau(   7) = (   0.4997443   0.0117532   0.0108402  )
         8        Mg     tau(   8) = (   0.6102666   0.5592218   0.5160522  )
         9        O      tau(   9) = (   0.3076447   0.2819200   0.2601532  )
        10        O      tau(  10) = (   0.3578766   0.3279429   0.7502604  )
        11        O      tau(  11) = (   0.3578891   0.7741252   0.2667409  )
        12        O      tau(  12) = (   0.4181663   0.8293880   0.7653703  )
        13        O      tau(  13) = (   0.8023668   0.2890555   0.2667340  )
        14        O      tau(  14) = (   0.8626440   0.3443183   0.7653634  )
        15        O      tau(  15) = (   0.8626565   0.7905006   0.2818439  )
        16        O      tau(  16) = (   0.9128884   0.8365235   0.7719512  )

     number of k points=     1  Fermi-Dirac smearing, width (Ry)=  0.0050
                       cart. coord. in units 2pi/alat
        k(    1) = (   0.0000000   0.0000000   0.0000000), wk =   1.0000000

     Dense  grid:    63123 G-vectors     FFT dimensions: (  50,  50,  50)

     Estimated max dynamical RAM per process >     333.83 MB

     Check: negative core charge=   -0.000002
     Generating pointlists ...
     new r_m :   0.1698 (alat units)  1.2126 (a.u.) for type    1
     new r_m :   0.1698 (alat units)  1.2126 (a.u.) for type    2
     new r_m :   0.1698 (alat units)  1.2126 (a.u.) for type    3
     new r_m :   0.1698 (alat units)  1.2126 (a.u.) for type    4
     new r_m :   0.1711 (alat units)  1.2219 (a.u.) for type    5
     new r_m :   0.1698 (alat units)  1.2126 (a.u.) for type    6

     Initial potential from superposition of free atoms

     starting charge     119.9950, renormalised to     120.0000

     STARTING HUBBARD OCCUPATIONS:

     =================== HUBBARD OCCUPATIONS ===================
     ------------------------ ATOM    1 ------------------------
     Tr[ns(  1)] (up, down, total) =   5.00000  1.30000  6.30000
     Atomic magnetic moment for atom   1 =   3.70000
     SPIN  1
     eigenvalues:
       1.000  1.000  1.000  1.000  1.000
     eigenvectors (columns):
       1.000  0.000  0.000  0.000  0.000
       0.000  1.000  0.000  0.000  0.000
       0.000  0.000  1.000  0.000  0.000
       0.000  0.000  0.000  1.000  0.000
       0.000  0.000  0.000  0.000  1.000
     occupation matrix ns (before diag.):
       1.000  0.000  0.000  0.000  0.000
       0.000  1.000  0.000  0.000  0.000
       0.000  0.000  1.000  0.000  0.000
       0.000  0.000  0.000  1.000  0.000
       0.000  0.000  0.000  0.000  1.000
     SPIN  2
     eigenvalues:
       0.260  0.260  0.260  0.260  0.260
     eigenvectors (columns):
       1.000  0.000  0.000  0.000  0.000
       0.000  1.000  0.000  0.000  0.000
       0.000  0.000  1.000  0.000  0.000
       0.000  0.000  0.000  1.000  0.000
       0.000  0.000  0.000  0.000  1.000
     occupation matrix ns (before diag.):
       0.260  0.000  0.000  0.000  0.000
       0.000  0.260  0.000  0.000  0.000
       0.000  0.000  0.260  0.000  0.000
       0.000  0.000  0.000  0.260  0.000
       0.000  0.000  0.000  0.000  0.260
     ------------------------ ATOM    2 ------------------------
     Tr[ns(  2)] (up, down, total) =   5.00000  1.30000  6.30000
     Atomic magnetic moment for atom   2 =   3.70000
     SPIN  1
     eigenvalues:
       1.000  1.000  1.000  1.000  1.000
     eigenvectors (columns):
       1.000  0.000  0.000  0.000  0.000
       0.000  1.000  0.000  0.000  0.000
       0.000  0.000  1.000  0.000  0.000
       0.000  0.000  0.000  1.000  0.000
       0.000  0.000  0.000  0.000  1.000
     occupation matrix ns (before diag.):
       1.000  0.000  0.000  0.000  0.000
       0.000  1.000  0.000  0.000  0.000
       0.000  0.000  1.000  0.000  0.000
       0.000  0.000  0.000  1.000  0.000
       0.000  0.000  0.000  0.000  1.000
     SPIN  2
     eigenvalues:
       0.260  0.260  0.260  0.260  0.260
     eigenvectors (columns):
       1.000  0.000  0.000  0.000  0.000
       0.000  1.000  0.000  0.000  0.000
       0.000  0.000  1.000  0.000  0.000
       0.000  0.000  0.000  1.000  0.000
       0.000  0.000  0.000  0.000  1.000
     occupation matrix ns (before diag.):
       0.260  0.000  0.000  0.000  0.000
       0.000  0.260  0.000  0.000  0.000
       0.000  0.000  0.260  0.000  0.000
       0.000  0.000  0.000  0.260  0.000
       0.000  0.000  0.000  0.000  0.260
     ------------------------ ATOM    3 ------------------------
     Tr[ns(  3)] (up, down, total) =   5.00000  1.30000  6.30000
     Atomic magnetic moment for atom   3 =   3.70000
     SPIN  1
     eigenvalues:
       1.000  1.000  1.000  1.000  1.000
     eigenvectors (columns):
       1.000  0.000  0.000  0.000  0.000
       0.000  1.000  0.000  0.000  0.000
       0.000  0.000  1.000  0.000  0.000
       0.000  0.000  0.000  1.000  0.000
       0.000  0.000  0.000  0.000  1.000
     occupation matrix ns (before diag.):
       1.000  0.000  0.000  0.000  0.000
       0.000  1.000  0.000  0.000  0.000
       0.000  0.000  1.000  0.000  0.000
       0.000  0.000  0.000  1.000  0.000
       0.000  0.000  0.000  0.000  1.000
     SPIN  2
     eigenvalues:
       0.260  0.260  0.260  0.260  0.260
     eigenvectors (columns):
       1.000  0.000  0.000  0.000  0.000
       0.000  1.000  0.000  0.000  0.000
       0.000  0.000  1.000  0.000  0.000
       0.000  0.000  0.000  1.000  0.000
       0.000  0.000  0.000  0.000  1.000
     occupation matrix ns (before diag.):
       0.260  0.000  0.000  0.000  0.000
       0.000  0.260  0.000  0.000  0.000
       0.000  0.000  0.260  0.000  0.000
       0.000  0.000  0.000  0.260  0.000
       0.000  0.000  0.000  0.000  0.260
     ------------------------ ATOM    4 ------------------------
     Tr[ns(  4)] (up, down, total) =   5.00000  1.30000  6.30000
     Atomic magnetic moment for atom   4 =   3.70000
     SPIN  1
     eigenvalues:
       1.000  1.000  1.000  1.000  1.000
     eigenvectors (columns):
       1.000  0.000  0.000  0.000  0.000
       0.000  1.000  0.000  0.000  0.000
       0.000  0.000  1.000  0.000  0.000
       0.000  0.000  0.000  1.000  0.000
       0.000  0.000  0.000  0.000  1.000
     occupation matrix ns (before diag.):
       1.000  0.000  0.000  0.000  0.000
       0.000  1.000  0.000  0.000  0.000
       0.000  0.000  1.000  0.000  0.000
       0.000  0.000  0.000  1.000  0.000
       0.000  0.000  0.000  0.000  1.000
     SPIN  2
     eigenvalues:
       0.260  0.260  0.260  0.260  0.260
     eigenvectors (columns):
       1.000  0.000  0.000  0.000  0.000
       0.000  1.000  0.000  0.000  0.000
       0.000  0.000  1.000  0.000  0.000
       0.000  0.000  0.000  1.000  0.000
       0.000  0.000  0.000  0.000  1.000
     occupation matrix ns (before diag.):
       0.260  0.000  0.000  0.000  0.000
       0.000  0.260  0.000  0.000  0.000
       0.000  0.000  0.260  0.000  0.000
       0.000  0.000  0.000  0.260  0.000
       0.000  0.000  0.000  0.000  0.260

     Number of occupied Hubbard levels =   25.2000

     Atomic wfc used for Hubbard projectors are NOT orthogonalized

     Starting wfcs are   88 atomic wfcs
     Checking if some PAW data can be deallocated... 

     total cpu time spent up to now is        1.4 secs

     per-process dynamical memory:   426.6 Mb

     Self-consistent Calculation

     iteration #  1     ecut=   120.00 Ry     beta= 0.30
     Davidson diagonalization with overlap
     ethr =  1.00E-02,  avg # of iterations =  6.0

     =================== HUBBARD OCCUPATIONS ===================
     ------------------------ ATOM    1 ------------------------
     Tr[ns(  1)] (up, down, total) =   4.73297  2.74070  7.47367
     Atomic magnetic moment for atom   1 =   1.99226
     SPIN  1
     eigenvalues:
       0.845  0.849  0.967  1.036  1.037
     eigenvectors (columns):
       0.031  0.061  0.080 -0.878  0.467
      -0.385  0.718  0.574  0.052 -0.067
       0.847  0.029  0.525  0.080  0.001
       0.078  0.037 -0.054 -0.467 -0.878
       0.358  0.692 -0.621  0.044  0.076
     occupation matrix ns (before diag.):
       1.035 -0.009 -0.008 -0.001 -0.006
      -0.009  0.888  0.037  0.003 -0.042
      -0.008  0.037  0.880 -0.011 -0.039
      -0.001  0.003 -0.011  1.035 -0.012
      -0.006 -0.042 -0.039 -0.012  0.895
     SPIN  2
     eigenvalues:
       0.383  0.400  0.400  0.778  0.780
     eigenvectors (columns):
       0.077  0.012  0.003 -0.993  0.084
       0.579  0.290  0.757  0.056  0.066
       0.531  0.570 -0.621  0.040 -0.080
      -0.054  0.090 -0.085  0.080  0.988
      -0.612  0.763  0.186 -0.044 -0.083
     occupation matrix ns (before diag.):
       0.776 -0.020 -0.018  0.001  0.015
      -0.020  0.397 -0.006  0.027  0.003
      -0.018 -0.006  0.398 -0.028  0.007
       0.001  0.027 -0.028  0.773 -0.033
       0.015  0.003  0.007 -0.033  0.397
     ------------------------ ATOM    2 ------------------------
     Tr[ns(  2)] (up, down, total) =   4.73288  2.74053  7.47341
     Atomic magnetic moment for atom   2 =   1.99235
     SPIN  1
     eigenvalues:
       0.845  0.849  0.967  1.036  1.037
     eigenvectors (columns):
       0.034  0.059 -0.080 -0.837 -0.538
      -0.345  0.738 -0.573  0.047  0.071
       0.847 -0.018 -0.525  0.080  0.006
       0.079  0.033  0.054 -0.537  0.837
       0.395  0.671  0.621  0.050 -0.072
     occupation matrix ns (before diag.):
       1.035 -0.009 -0.008 -0.001 -0.006
      -0.009  0.888  0.037  0.003 -0.042
      -0.008  0.037  0.880 -0.011 -0.039
      -0.001  0.003 -0.011  1.035 -0.013
      -0.006 -0.042 -0.039 -0.013  0.895
     SPIN  2
     eigenvalues:
       0.383  0.400  0.400  0.778  0.779
     eigenvectors (columns):
       0.076  0.011  0.004 -0.989  0.126
       0.579  0.212  0.783  0.058  0.063
       0.532  0.629 -0.560  0.036 -0.082
      -0.053  0.098 -0.075  0.122  0.983
      -0.611  0.742  0.261 -0.048 -0.081
     occupation matrix ns (before diag.):
       0.776 -0.020 -0.018  0.001  0.015
      -0.020  0.397 -0.006  0.027  0.003
      -0.018 -0.006  0.398 -0.028  0.007
       0.001  0.027 -0.028  0.772 -0.033
       0.015  0.003  0.007 -0.033  0.397
     ------------------------ ATOM    3 ------------------------
     Tr[ns(  3)] (up, down, total) =   4.73175  2.74214  7.47390
     Atomic magnetic moment for atom   3 =   1.98961
     SPIN  1
     eigenvalues:
       0.845  0.848  0.967  1.036  1.037
     eigenvectors (columns):
       0.031  0.060 -0.080 -0.870 -0.482
      -0.384  0.719 -0.573  0.051  0.068
       0.847  0.028 -0.525  0.080  0.000
       0.078  0.037  0.054 -0.482  0.870
       0.358  0.691  0.621  0.045 -0.075
     occupation matrix ns (before diag.):
       1.035 -0.009 -0.008 -0.001 -0.006
      -0.009  0.888  0.038  0.003 -0.042
      -0.008  0.038  0.879 -0.011 -0.039
      -0.001  0.003 -0.011  1.035 -0.013
      -0.006 -0.042 -0.039 -0.013  0.895
     SPIN  2
     eigenvalues:
       0.383  0.400  0.400  0.779  0.780
     eigenvectors (columns):
       0.076  0.012  0.001  0.992 -0.102
       0.581  0.500 -0.636 -0.042  0.075
       0.531  0.360  0.762 -0.053 -0.071
      -0.054  0.061  0.108  0.104  0.985
      -0.610  0.785  0.048  0.028 -0.090
     occupation matrix ns (before diag.):
       0.776 -0.020 -0.018  0.001  0.015
      -0.020  0.397 -0.007  0.027  0.003
      -0.018 -0.007  0.398 -0.028  0.007
       0.001  0.027 -0.028  0.773 -0.033
       0.015  0.003  0.007 -0.033  0.397
     ------------------------ ATOM    4 ------------------------
     Tr[ns(  4)] (up, down, total) =   4.73287  2.74089  7.47376
     Atomic magnetic moment for atom   4 =   1.99198
     SPIN  1
     eigenvalues:
       0.845  0.849  0.967  1.036  1.037
     eigenvectors (columns):
       0.034  0.059 -0.080 -0.846 -0.523
      -0.345  0.738 -0.573  0.048  0.070
       0.847 -0.017 -0.525  0.080  0.004
       0.080  0.033  0.054 -0.523  0.846
       0.395  0.671  0.621  0.049 -0.073
     occupation matrix ns (before diag.):
       1.035 -0.009 -0.008 -0.001 -0.006
      -0.009  0.888  0.037  0.003 -0.042
      -0.008  0.037  0.880 -0.011 -0.039
      -0.001  0.003 -0.011  1.035 -0.013
      -0.006 -0.042 -0.039 -0.013  0.895
     SPIN  2
     eigenvalues:
       0.383  0.400  0.400  0.778  0.780
     eigenvectors (columns):
       0.077  0.012  0.002  0.995 -0.069
       0.578  0.567 -0.580 -0.046  0.073
       0.531  0.278  0.796 -0.051 -0.073
      -0.053  0.049  0.114  0.072  0.988
      -0.612  0.774  0.132  0.032 -0.089
     occupation matrix ns (before diag.):
       0.775 -0.020 -0.018  0.001  0.015
      -0.020  0.397 -0.006  0.027  0.003
      -0.018 -0.006  0.398 -0.028  0.007
       0.001  0.027 -0.028  0.773 -0.033
       0.015  0.003  0.007 -0.033  0.397

     Number of occupied Hubbard levels =   29.8947

     total cpu time spent up to now is        1.7 secs

     total energy              =   -1417.62288119 Ry
     estimated scf accuracy    <       6.49516283 Ry

     total magnetization       =    10.69 Bohr mag/cell
     absolute magnetization    =    10.76 Bohr mag/cell

     iteration #  2     ecut=   120.00 Ry     beta= 0.30
     Davidson diagonalization with overlap
     ethr =  5.41E-03,  avg # of iterations =  3.0

     total cpu time spent up to now is        2.0 secs

     total energy              =   -1419.50434639 Ry
     estimated scf accuracy    <       2.22855922 Ry

     total magnetization       =     2.00 Bohr mag/cell
     absolute magnetization    =     3.98 Bohr mag/cell

     iteration #  3     ecut=   120.00 Ry     beta= 0.30
     Davidson diagonalization with overlap
     ethr =  1.86E-03,  avg # of iterations =  4.5

     total cpu time spent up to now is        2.3 secs

     total energy              =   -1420.16793844 Ry
     estimated scf accuracy    <       0.82669987 Ry

     total magnetization       =     2.00 Bohr mag/cell
     absolute magnetization    =     3.34 Bohr mag/cell

     iteration #  4     ecut=   120.00 Ry     beta= 0.30
     Davidson diagonalization with overlap
     ethr =  6.89E-04,  avg # of iterations =  4.0

     total cpu time spent up to now is        2.6 secs

     total energy              =   -1420.31902409 Ry
     estimated scf accuracy    <       0.34197760 Ry

     total magnetization       =     2.00 Bohr mag/cell
     absolute magnetization    =     2.70 Bohr mag/cell

     iteration #  5     ecut=   120.00 Ry     beta= 0.30
     Davidson diagonalization with overlap
     ethr =  2.85E-04,  avg # of iterations =  5.0

     total cpu time spent up to now is        2.9 secs

     total energy              =   -1420.43358970 Ry
     estimated scf accuracy    <       0.41208257 Ry

     total magnetization       =     2.00 Bohr mag/cell
     absolute magnetization    =     2.52 Bohr mag/cell

     iteration #  6     ecut=   120.00 Ry     beta= 0.30
     Davidson diagonalization with overlap
     ethr =  2.85E-04,  avg # of iterations =  7.5

     total cpu time spent up to now is        3.3 secs

     total energy              =   -1420.51038040 Ry
     estimated scf accuracy    <       0.11530883 Ry

     total magnetization       =     0.25 Bohr mag/cell
     absolute magnetization    =     0.99 Bohr mag/cell

     iteration #  7     ecut=   120.00 Ry     beta= 0.30
     Davidson diagonalization with overlap
     ethr =  9.61E-05,  avg # of iterations =  2.0

     total cpu time spent up to now is        3.5 secs

     total energy              =   -1420.52889648 Ry
     estimated scf accuracy    <       0.06177841 Ry

     total magnetization       =     0.02 Bohr mag/cell
     absolute magnetization    =     0.75 Bohr mag/cell

     iteration #  8     ecut=   120.00 Ry     beta= 0.30
     Davidson diagonalization with overlap
     ethr =  5.15E-05,  avg # of iterations =  3.0

     total cpu time spent up to now is        3.8 secs

     total energy              =   -1420.54248295 Ry
     estimated scf accuracy    <       0.03696659 Ry

     total magnetization       =     0.00 Bohr mag/cell
     absolute magnetization    =     0.59 Bohr mag/cell

     iteration #  9     ecut=   120.00 Ry     beta= 0.30
     Davidson diagonalization with overlap
     ethr =  3.08E-05,  avg # of iterations =  2.0

     total cpu time spent up to now is        4.1 secs

     total energy              =   -1420.55015210 Ry
     estimated scf accuracy    <       0.00262131 Ry

     total magnetization       =     0.00 Bohr mag/cell
     absolute magnetization    =     0.17 Bohr mag/cell

     iteration # 10     ecut=   120.00 Ry     beta= 0.30
     Davidson diagonalization with overlap
     ethr =  2.18E-06,  avg # of iterations = 12.5

     total cpu time spent up to now is        4.6 secs

     total energy              =   -1420.55187343 Ry
     estimated scf accuracy    <       0.00140314 Ry

     total magnetization       =    -0.00 Bohr mag/cell
     absolute magnetization    =     0.05 Bohr mag/cell

     iteration # 11     ecut=   120.00 Ry     beta= 0.30
     Davidson diagonalization with overlap
     ethr =  1.17E-06,  avg # of iterations =  3.0

     total cpu time spent up to now is        4.8 secs

     total energy              =   -1420.55213120 Ry
     estimated scf accuracy    <       0.00018684 Ry

     total magnetization       =     0.00 Bohr mag/cell
     absolute magnetization    =     0.04 Bohr mag/cell

     iteration # 12     ecut=   120.00 Ry     beta= 0.30
     Davidson diagonalization with overlap
     ethr =  1.56E-07,  avg # of iterations =  4.5
 
     Magnetic moment per site  (integrated on atomic sphere of radius R)
     atom   1 (R=0.170)  charge=  5.0524  magn=  0.0039
     atom   2 (R=0.170)  charge=  5.0525  magn=  0.0022
     atom   3 (R=0.170)  charge=  5.0523  magn=  0.0058
     atom   4 (R=0.170)  charge=  5.0524  magn=  0.0032
     atom   5 (R=0.171)  charge=  7.9818  magn= -0.0000
     atom   6 (R=0.171)  charge=  7.9818  magn= -0.0000
     atom   7 (R=0.171)  charge=  7.9818  magn= -0.0000
     atom   8 (R=0.171)  charge=  7.9818  magn= -0.0000
     atom   9 (R=0.170)  charge=  5.0778  magn= -0.0020
     atom  10 (R=0.170)  charge=  5.0778  magn= -0.0021
     atom  11 (R=0.170)  charge=  5.0777  magn= -0.0019
     atom  12 (R=0.170)  charge=  5.0778  magn= -0.0022
     atom  13 (R=0.170)  charge=  5.0778  magn= -0.0022
     atom  14 (R=0.170)  charge=  5.0777  magn= -0.0019
     atom  15 (R=0.170)  charge=  5.0778  magn= -0.0021
     atom  16 (R=0.170)  charge=  5.0778  magn= -0.0020

     total cpu time spent up to now is        5.2 secs

     End of self-consistent calculation

     =================== HUBBARD OCCUPATIONS ===================
     ------------------------ ATOM    1 ------------------------
     Tr[ns(  1)] (up, down, total) =   4.12122  4.11662  8.23783
     Atomic magnetic moment for atom   1 =   0.00460
     SPIN  1
     eigenvalues:
       0.562  0.562  0.960  1.019  1.019
     eigenvectors (columns):
      -0.030 -0.031  0.080 -0.745  0.661
      -0.160  0.796  0.573 -0.053 -0.099
       0.818 -0.199  0.525  0.097  0.073
       0.162 -0.062 -0.054 -0.658 -0.730
       0.527  0.568 -0.621 -0.005  0.120
     occupation matrix ns (before diag.):
       1.018  0.006  0.006  0.002  0.018
       0.006  0.698  0.114  0.036 -0.147
       0.006  0.114  0.678 -0.065 -0.126
       0.002  0.036 -0.065  1.005 -0.025
       0.018 -0.147 -0.126 -0.025  0.722
     SPIN  2
     eigenvalues:
       0.559  0.559  0.960  1.019  1.019
     eigenvectors (columns):
      -0.033 -0.029  0.080  0.748 -0.657
       0.790 -0.187  0.573 -0.091 -0.065
      -0.171  0.825  0.525  0.061  0.105
      -0.057  0.165 -0.054 -0.643 -0.744
       0.585  0.507 -0.621  0.120  0.009
     occupation matrix ns (before diag.):
       1.018  0.007  0.006  0.002  0.019
       0.007  0.697  0.115  0.037 -0.148
       0.006  0.115  0.677 -0.065 -0.127
       0.002  0.037 -0.065  1.005 -0.025
       0.019 -0.148 -0.127 -0.025  0.721
     ------------------------ ATOM    2 ------------------------
     Tr[ns(  2)] (up, down, total) =   4.12027  4.11754  8.23782
     Atomic magnetic moment for atom   2 =   0.00273
     SPIN  1
     eigenvalues:
       0.561  0.561  0.960  1.019  1.019
     eigenvectors (columns):
      -0.039 -0.019  0.080 -0.968  0.235
       0.121  0.803  0.573 -0.000 -0.112
       0.702 -0.466  0.525  0.051  0.110
       0.132 -0.114 -0.054 -0.239 -0.954
       0.689  0.354 -0.621 -0.061  0.103
     occupation matrix ns (before diag.):
       1.018  0.006  0.006  0.002  0.018
       0.006  0.698  0.114  0.036 -0.147
       0.006  0.114  0.678 -0.065 -0.126
       0.002  0.036 -0.065  1.005 -0.025
       0.018 -0.147 -0.126 -0.025  0.721
     SPIN  2
     eigenvalues:
       0.560  0.560  0.960  1.019  1.019
     eigenvectors (columns):
      -0.032 -0.030  0.080 -0.954 -0.286
       0.791 -0.180  0.573 -0.007  0.112
      -0.178  0.823  0.525  0.057 -0.107
      -0.059  0.165 -0.054 -0.290  0.940
       0.581  0.512 -0.621 -0.056 -0.107
     occupation matrix ns (before diag.):
       1.018  0.007  0.006  0.002  0.019
       0.007  0.697  0.115  0.037 -0.148
       0.006  0.115  0.677 -0.065 -0.127
       0.002  0.037 -0.065  1.005 -0.025
       0.019 -0.148 -0.127 -0.025  0.721
     ------------------------ ATOM    3 ------------------------
     Tr[ns(  3)] (up, down, total) =   4.12224  4.11551  8.23775
     Atomic magnetic moment for atom   3 =   0.00673
     SPIN  1
     eigenvalues:
       0.562  0.562  0.960  1.019  1.019
     eigenvectors (columns):
      -0.026 -0.034  0.080 -0.439  0.894
      -0.241  0.775  0.573 -0.086 -0.071
       0.835 -0.113  0.525  0.117  0.031
       0.168 -0.045 -0.054 -0.886 -0.427
       0.465  0.619 -0.621  0.040  0.113
     occupation matrix ns (before diag.):
       1.018  0.006  0.006  0.002  0.018
       0.006  0.699  0.114  0.036 -0.147
       0.006  0.114  0.679 -0.065 -0.126
       0.002  0.036 -0.065  1.005 -0.025
       0.018 -0.147 -0.126 -0.025  0.722
     SPIN  2
     eigenvalues:
       0.559  0.559  0.960  1.019  1.019
     eigenvectors (columns):
      -0.037 -0.024  0.080 -0.991 -0.101
       0.749 -0.313  0.573  0.015  0.111
      -0.034  0.842  0.525  0.036 -0.116
      -0.029  0.172 -0.054 -0.107  0.977
       0.660  0.404 -0.621 -0.075 -0.094
     occupation matrix ns (before diag.):
       1.018  0.007  0.006  0.002  0.019
       0.007  0.696  0.115  0.037 -0.148
       0.006  0.115  0.676 -0.065 -0.127
       0.002  0.037 -0.065  1.005 -0.025
       0.019 -0.148 -0.127 -0.025  0.720
     ------------------------ ATOM    4 ------------------------
     Tr[ns(  4)] (up, down, total) =   4.12084  4.11701  8.23785
     Atomic magnetic moment for atom   4 =   0.00383
     SPIN  1
     eigenvalues:
       0.561  0.562  0.960  1.019  1.019
     eigenvectors (columns):
      -0.033 -0.028  0.080 -0.991 -0.096
      -0.084  0.807  0.573  0.036 -0.106
       0.796 -0.275  0.525  0.012  0.120
       0.156 -0.077 -0.054  0.088 -0.979
       0.578  0.515 -0.621 -0.091  0.077
     occupation matrix ns (before diag.):
       1.018  0.006  0.006  0.002  0.018
       0.006  0.698  0.114  0.036 -0.147
       0.006  0.114  0.678 -0.065 -0.126
       0.002  0.036 -0.065  1.005 -0.025
       0.018 -0.147 -0.126 -0.025  0.722
     SPIN  2
     eigenvalues:
       0.560  0.560  0.960  1.019  1.019
     eigenvectors (columns):
      -0.029 -0.033  0.080 -0.803 -0.589
       0.805 -0.100  0.573 -0.044  0.103
      -0.259  0.801  0.525  0.089 -0.082
      -0.075  0.158 -0.054 -0.587  0.789
       0.527  0.567 -0.621 -0.017 -0.119
     occupation matrix ns (before diag.):
       1.018  0.007  0.006  0.002  0.019
       0.007  0.697  0.115  0.037 -0.148
       0.006  0.115  0.677 -0.065 -0.127
       0.002  0.037 -0.065  1.005 -0.025
       0.019 -0.148 -0.127 -0.025  0.721

     Number of occupied Hubbard levels =   32.9513

 ------ SPIN UP ------------


          k = 0.0000 0.0000 0.0000 (  7919 PWs)   bands (ev):

   -42.6169 -42.6149 -42.6145 -41.4501  -9.4716  -9.4714  -9.4710  -8.9492
    -8.9479  -8.9474  -8.8713  -8.8477  -8.8474  -8.8465  -8.6656  -8.6654
     5.5775   9.5223   9.5242   9.5285  11.9385  11.9389  11.9391  15.5794
    15.7226  15.7239  15.7240  17.4508  19.0015  19.0046  22.8093  22.8097
    22.8099  24.9733  24.9736  24.9740  25.4517  25.4550  25.4581  27.3088
    27.3098  28.6890  28.6903  28.6923  30.1737  30.1740  30.1753  30.7644
    30.7646  30.7649  31.5739  31.5745  32.4247  33.4148  33.4153  33.4154
    34.8857  34.8858  34.8864  39.6348  41.2134  41.2170  41.2203  41.4680
    41.4706  41.4753  42.2647  42.2677  47.1485  52.7246  52.7248  52.7251

 ------ SPIN DOWN ----------


          k = 0.0000 0.0000 0.0000 (  7919 PWs)   bands (ev):

   -42.6147 -42.6125 -42.6121 -41.4497  -9.4714  -9.4713  -9.4708  -8.9486
    -8.9472  -8.9471  -8.8707  -8.8472  -8.8470  -8.8460  -8.6650  -8.6649
     5.5704   9.5434   9.5463   9.5480  11.9305  11.9309  11.9311  15.5745
    15.7210  15.7230  15.7240  17.4395  19.0268  19.0285  22.8026  22.8028
    22.8031  24.9656  24.9657  24.9665  25.4787  25.4820  25.4837  27.3220
    27.3223  28.6985  28.6988  28.6994  30.1820  30.1847  30.1856  30.7649
    30.7663  30.7674  31.5630  31.5637  32.4134  33.4022  33.4030  33.4038
    34.8881  34.8889  34.8899  39.6361  41.2419  41.2450  41.2476  41.5011
    41.5062  41.5084  42.3005  42.3023  47.1490  52.7267  52.7270  55.8420

     the Fermi energy is    40.3943 ev

!    total energy              =   -1420.55219874 Ry
     total all-electron energy =    -12944.264894 Ry
     estimated scf accuracy    <       0.00005298 Ry
     smearing contrib. (-TS)   =      -0.00000365 Ry
     internal energy E=F+TS    =   -1420.55219509 Ry

     The total energy is F=E-TS. E is the sum of the following terms:
     one-electron contribution =      72.41358305 Ry
     hartree contribution      =     153.81968558 Ry
     xc contribution           =    -268.19429826 Ry
     ewald contribution        =    -946.45931258 Ry
     Hubbard energy            =       1.45892792 Ry
     one-center paw contrib.   =    -433.59078081 Ry

     total magnetization       =     0.00 Bohr mag/cell
     absolute magnetization    =     0.04 Bohr mag/cell

     convergence has been achieved in  12 iterations
     force_hub    :      0.10s CPU      0.10s WALL (       1 calls)
     dndtau       :      0.09s CPU      0.09s WALL (      96 calls)
     dprojdtau    :      0.01s CPU      0.01s WALL (     384 calls)
     matel_dSdtau :      0.07s CPU      0.07s WALL (      96 calls)

     Forces acting on atoms (cartesian axes, Ry/au):

     atom    1 type  1   force =     0.00000000    0.00000000    0.00000000
     atom    2 type  2   force =     0.00000000    0.00000000    0.00000000
     atom    3 type  3   force =     0.00000000    0.00000000    0.00000000
     atom    4 type  4   force =     0.00000000    0.00000000    0.00000000
     atom    5 type  5   force =     0.00000000    0.00000000    0.00000000
     atom    6 type  5   force =     0.00000000    0.00000000    0.00000000
     atom    7 type  5   force =     0.00000000    0.00000000    0.00000000
     atom    8 type  5   force =     0.00000000    0.00000000    0.00000000
     atom    9 type  6   force =     0.04361660    0.04046480    0.03681245
     atom   10 type  6   force =    -0.04446208   -0.03990395   -0.03689412
     atom   11 type  6   force =    -0.04428645   -0.04020856   -0.03652540
     atom   12 type  6   force =     0.04393931    0.04007818    0.03699231
     atom   13 type  6   force =    -0.04393931   -0.04007818   -0.03699231
     atom   14 type  6   force =     0.04428645    0.04020856    0.03652540
     atom   15 type  6   force =     0.04446208    0.03990395    0.03689412
     atom   16 type  6   force =    -0.04361660   -0.04046480   -0.03681245

     Total force =     0.198206     Total SCF correction =     0.007173


     Computing stress (Cartesian axis) and pressure

     stres_hub    :      0.28s CPU      0.28s WALL (       1 calls)
     dprojdepsilo :      0.25s CPU      0.25s WALL (      18 calls)
     dprojdeps1   :      0.02s CPU      0.02s WALL (      18 calls)
     dprojdeps2   :      0.00s CPU      0.00s WALL (      18 calls)
     dprojdeps3   :      0.23s CPU      0.23s WALL (      18 calls)
          total   stress  (Ry/bohr**3)                   (kbar)     P=    14542.25
   0.09911121   0.00156535   0.00145136        14579.76      230.27      213.50
   0.00156535   0.09883595   0.00132379          230.27    14539.27      194.74
   0.00145136   0.00132379   0.09862152          213.50      194.74    14507.73


     Writing all to output data dir ./pwscf.save/ :
     XML data file, charge density, pseudopotentials, collected wavefunctions
 
     init_run     :      0.65s CPU      0.71s WALL (       1 calls)
     electrons    :      3.77s CPU      3.79s WALL (       1 calls)
     forces       :      0.15s CPU      0.15s WALL (       1 calls)
     stress       :      0.45s CPU      0.45s WALL (       1 calls)

     Called by init_run:
     wfcinit      :      0.06s CPU      0.08s WALL (       1 calls)
     potinit      :      0.09s CPU      0.10s WALL (       1 calls)
     hinit0       :      0.46s CPU      0.46s WALL (       1 calls)

     Called by electrons:
     c_bands      :      1.74s CPU      1.75s WALL (      12 calls)
     sum_band     :      0.87s CPU      0.87s WALL (      12 calls)
     v_of_rho     :      0.02s CPU      0.02s WALL (      13 calls)
     newd         :      0.26s CPU      0.27s WALL (      13 calls)
     PAW_pot      :      0.84s CPU      0.85s WALL (      13 calls)
     mix_rho      :      0.12s CPU      0.13s WALL (      12 calls)

     Called by c_bands:
     init_us_2    :      0.02s CPU      0.02s WALL (      60 calls)
     cegterg      :      1.66s CPU      1.67s WALL (      24 calls)

     Called by *egterg:
     cdiaghg      :      0.64s CPU      0.65s WALL (     138 calls)
                                        0.65s GPU  (     138 calls)
     h_psi        :      0.43s CPU      0.44s WALL (     140 calls)
     s_psi        :      0.07s CPU      0.07s WALL (     146 calls)
     g_psi        :      0.00s CPU      0.00s WALL (     114 calls)

     Called by h_psi:
     h_psi:calbec :      0.00s CPU      0.00s WALL (     140 calls)
     vloc_psi     :      0.24s CPU      0.24s WALL (     140 calls)
                                        0.24s GPU  (     140 calls)
     add_vuspsi   :      0.11s CPU      0.11s WALL (     140 calls)
     vhpsi        :      0.08s CPU      0.08s WALL (     140 calls)

     General routines
     calbec       :      0.21s CPU      0.22s WALL (    1926 calls)
     fft          :      0.00s CPU      0.01s WALL (      99 calls)
                                        0.01s GPU  (      99 calls)
     ffts         :      0.00s CPU      0.00s WALL (      24 calls)
                                        0.00s GPU  (      24 calls)
     fftw         :      0.01s CPU      0.25s WALL (     842 calls)
                                        0.24s GPU  (     842 calls)
 
     Parallel routines

     Hubbard U routines
     new_ns       :      0.20s CPU      0.20s WALL (      12 calls)
     vhpsi        :      0.08s CPU      0.08s WALL (     140 calls)
     force_hub    :      0.10s CPU      0.10s WALL (       1 calls)
     stres_hub    :      0.28s CPU      0.28s WALL (       1 calls)
 
     PWSCF        :      5.66s CPU      5.78s WALL

 
   This run was terminated on:  12:39:11  14Aug2025            

=------------------------------------------------------------------------------=
   JOB DONE.
=------------------------------------------------------------------------------=
