<UPF version="2.0.1">
  <PP_INFO>
    Generated using "atomic" code by A. Dal Corso  v.7.4
    Author: ADC
    Generation date: 13Nov2024
    Pseudopotential type: PAW
    Element: Mg
    Functional:  SLA  PZ   NOGX NOGC
    Suggested minimum cutoff for wavefunctions:  58. Ry
    Suggested minimum cutoff for charge density: 385. Ry
    The Pseudo was generated with a Scalar-Relativistic Calculation
    L component and cutoff radius for Local Potential:  2   1.2000
    Valence configuration: 
    nl pn  l   occ       Rcut    Rcut US       E pseu
    2S  1  0  2.00      0.700      1.400    -5.827246
    3S  2  0  2.00      0.700      1.400    -0.351863
    2P  2  1  6.00      0.900      1.300    -3.433409
    Generation configuration:
    2S  1  0  2.00      0.700      1.400    -5.827293
    3S  2  0  2.00      0.700      1.400    -0.351868
    2P  2  1  6.00      0.900      1.300    -3.433455
    2P  2  1  0.00      0.900      1.300    -3.050000
    3D  3  2  0.00      1.200      1.200     1.000000
    Pseudization used: troullier-martins
    <PP_INPUTFILE>
@input
title='Mg',
zed=12.,
rel=1,
config='[Ne] 3s2.0 3p0 3d-1',
iswitch=3,
dft='LDA'
/
@inputp
lpaw=.true.,
pseudotype=3,
file_pseudopw='Mg.pz-spnl-kjpaw_psl.1.0.0.UPF',
author='ADC',
lloc=2,
which_augfun='PSQ',
rmatch_augfun_nc=.true.,
nlcc=.true.,
new_core_ps=.true.,
rcore=0.5,
tm=.true.
/
5
2S  1  0  2.00  0.00  0.70  1.40  0.0
3S  2  0  2.00  0.00  0.70  1.40  0.0
2P  2  1  6.00  0.00  0.90  1.30  0.0
2P  2  1  0.00 -3.05  0.90  1.30  0.0
3D  3  2  0.00  1.00  1.20  1.20  0.0
    </PP_INPUTFILE>
  </PP_INFO>
    <!-- END OF HUMAN READABLE SECTION -->
  <PP_HEADER generated="Generated using 'atomic' code by A. Dal Corso  v.7.4" author="ADC" date="13Nov2024" comment="" element="Mg" pseudo_type="PAW" relativistic="scalar" is_ultrasoft="true" is_paw="true" is_coulomb="false" has_so="false" has_wfc="true" has_gipaw="false" paw_as_gipaw="false" core_correction="true" with_metagga_info="false" functional=" SLA  PZ   NOGX NOGC" z_valence="10.000000000000000" total_psenergy="-139.60250134182496" wfc_cutoff="58.091452130340492" rho_cutoff="385.21052248099937" l_max="1" l_max_rho="2" l_local="2" mesh_size="1129" number_of_wfc="3" number_of_proj="4"/>
  <PP_MESH mesh="1129" dx="1.2500000000000001E-002" xmin="-7.0000000000000000" rmax="100.00000000000000" zmesh="12.000000000000000">
    <PP_R>
   7.599016379620969E-05   7.694600238908519E-05   7.791386395138184E-05
   7.889389971343783E-05   7.988626280783498E-05   8.089110829332575E-05
   8.190859317906155E-05   8.293887644912595E-05   8.398211908737588E-05
   8.503848410259622E-05   8.610813655396975E-05   8.719124357686821E-05
   8.828797440896751E-05   8.939850041669140E-05   9.052299512198816E-05
   9.166163422944319E-05   9.281459565373361E-05   9.398205954742769E-05
   9.516420832913396E-05   9.636122671200481E-05   9.757330173259787E-05
   9.880062278010107E-05   1.000433816259251E-04   1.013017724536679E-04
   1.025759918894567E-04   1.038662390326708E-04   1.051727154870512E-04
   1.064956253922020E-04   1.078351754554873E-04   1.091915749843300E-04
   1.105650359189160E-04   1.119557728653106E-04   1.133640031289912E-04
   1.147899467488014E-04   1.162338265313332E-04   1.176958680857401E-04
   1.191762998589895E-04   1.206753531715580E-04   1.221932622535753E-04
   1.237302642814239E-04   1.252865994147977E-04   1.268625108342276E-04
   1.284582447790792E-04   1.300740505860277E-04   1.317101807280181E-04
   1.333668908537137E-04   1.350444398274422E-04   1.367430897696438E-04
   1.384631060978278E-04   1.402047575680451E-04   1.419683163168812E-04
   1.437540579039785E-04   1.455622613550933E-04   1.473932092056934E-04
   1.492471875451058E-04   1.511244860612179E-04   1.530253980857423E-04
   1.549502206400501E-04   1.568992544815815E-04   1.588728041508397E-04
   1.608711780189758E-04   1.628946883359722E-04   1.649436512794330E-04
   1.670183870039866E-04   1.691192196913112E-04   1.712464776007882E-04
   1.734004931207941E-04   1.755816028206362E-04   1.777901475031423E-04
   1.800264722579129E-04   1.822909265152404E-04   1.845838641007097E-04
   1.869056432904836E-04   1.892566268672839E-04   1.916371821770780E-04
   1.940476811864762E-04   1.964885005408528E-04   1.989600216231978E-04
   2.014626306137086E-04   2.039967185501319E-04   2.065626813888632E-04
   2.091609200668166E-04   2.117918405640715E-04   2.144558539673083E-04
   2.171533765340415E-04   2.198848297576601E-04   2.226506404332876E-04
   2.254512407244689E-04   2.282870682306974E-04   2.311585660557907E-04
   2.340661828771261E-04   2.370103730157473E-04   2.399915965073536E-04
   2.430103191741806E-04   2.460670126977872E-04   2.491621546927550E-04
   2.522962287813179E-04   2.554697246689286E-04   2.586831382207757E-04
   2.619369715392650E-04   2.652317330424723E-04   2.685679375435855E-04
   2.719461063313457E-04   2.753667672514985E-04   2.788304547892727E-04
   2.823377101528926E-04   2.858890813581446E-04   2.894851233140045E-04
   2.931263979093440E-04   2.968134741007275E-04   3.005469280013109E-04
   3.043273429708620E-04   3.081553097069110E-04   3.120314263370483E-04
   3.159562985123840E-04   3.199305395021803E-04   3.239547702896775E-04
   3.280296196691236E-04   3.321557243440242E-04   3.363337290266299E-04
   3.405642865386722E-04   3.448480579133697E-04   3.491857124987149E-04
   3.535779280620617E-04   3.580253908960283E-04   3.625287959257307E-04
   3.670888468173672E-04   3.717062560881668E-04   3.763817452177222E-04
   3.811160447607228E-04   3.859098944611038E-04   3.907640433676342E-04
   3.956792499509565E-04   4.006562822220988E-04   4.056959178524802E-04
   4.107989442954210E-04   4.159661589091847E-04   4.211983690815678E-04
   4.264963923560543E-04   4.318610565595604E-04   4.372931999317821E-04
   4.427936712561730E-04   4.483633299925684E-04   4.540030464114771E-04
   4.597137017300643E-04   4.654961882498416E-04   4.713514094960923E-04
   4.772802803590488E-04   4.832837272368451E-04   4.893626881802710E-04
   4.955181130393411E-04   5.017509636117132E-04   5.080622137929699E-04
   5.144528497287918E-04   5.209238699690467E-04   5.274762856238123E-04
   5.341111205213652E-04   5.408294113681573E-04   5.476322079108010E-04
   5.545205731000978E-04   5.614955832571223E-04   5.685583282414023E-04
   5.757099116212110E-04   5.829514508460009E-04   5.902840774210104E-04
   5.977089370840582E-04   6.052271899845743E-04   6.128400108648697E-04
   6.205485892436948E-04   6.283541296021063E-04   6.362578515716634E-04
   6.442609901250059E-04   6.523647957688145E-04   6.605705347392079E-04
   6.688794891995968E-04   6.772929574410175E-04   6.858122540850025E-04
   6.944387102889841E-04   7.031736739542943E-04   7.120185099367789E-04
   7.209746002600528E-04   7.300433443314523E-04   7.392261591606882E-04
   7.485244795812597E-04   7.579397584746520E-04   7.674734669973451E-04
   7.771270948106939E-04   7.869021503136843E-04   7.968001608786254E-04
   8.068226730898077E-04   8.169712529851524E-04   8.272474863009176E-04
   8.376529787194655E-04   8.481893561201557E-04   8.588582648333958E-04
   8.696613718978753E-04   8.806003653210546E-04   8.916769543429107E-04
   9.028928697030126E-04   9.142498639109573E-04   9.257497115201922E-04
   9.373942094053054E-04   9.491851770427814E-04   9.611244567953018E-04
   9.732139141996211E-04   9.854554382580515E-04   9.978509417336351E-04
   1.010402361449008E-03   1.023111658589036E-03   1.035980819007258E-03
   1.049011853536167E-03   1.062206798301422E-03   1.075567715039989E-03
   1.089096691422290E-03   1.102795841378412E-03   1.116667305428402E-03
   1.130713251016744E-03   1.144935872851012E-03   1.159337393244802E-03
   1.173920062464978E-03   1.188686159083271E-03   1.203637990332323E-03
   1.218777892466185E-03   1.234108231125367E-03   1.249631401706476E-03
   1.265349829736495E-03   1.281265971251786E-03   1.297382313181841E-03
   1.313701373737874E-03   1.330225702806302E-03   1.346957882347156E-03
   1.363900526797536E-03   1.381056283480104E-03   1.398427833016747E-03
   1.416017889747424E-03   1.433829202154282E-03   1.451864553291126E-03
   1.470126761218264E-03   1.488618679442836E-03   1.507343197364693E-03
   1.526303240727848E-03   1.545501772077657E-03   1.564941791223701E-03
   1.584626335708521E-03   1.604558481282244E-03   1.624741342383166E-03
   1.645178072624398E-03   1.665871865286619E-03   1.686825953817033E-03
   1.708043612334605E-03   1.729528156141645E-03   1.751282942241836E-03
   1.773311369864765E-03   1.795616880997064E-03   1.818202960920231E-03
   1.841073138755204E-03   1.864230988013800E-03   1.887680127157081E-03
   1.911424220160744E-03   1.935466977087631E-03   1.959812154667426E-03
   1.984463556883656E-03   2.009425035568073E-03   2.034700491002503E-03
   2.060293872528283E-03   2.086209179163346E-03   2.112450460227079E-03
   2.139021815973036E-03   2.165927398229612E-03   2.193171411048776E-03
   2.220758111362957E-03   2.248691809650207E-03   2.276976870607714E-03
   2.305617713833798E-03   2.334618814518485E-03   2.363984704142758E-03
   2.393719971186619E-03   2.423829261846040E-03   2.454317280758941E-03
   2.485188791740309E-03   2.516448618526542E-03   2.548101645529174E-03
   2.580152818598074E-03   2.612607145794241E-03   2.645469698172330E-03
   2.678745610573006E-03   2.712440082425286E-03   2.746558378558947E-03
   2.781105830027173E-03   2.816087834939546E-03   2.851509859305503E-03
   2.887377437888419E-03   2.923696175070420E-03   2.960471745728081E-03
   2.997709896119139E-03   3.035416444780353E-03   3.073597283436668E-03
   3.112258377921802E-03   3.151405769110424E-03   3.191045573862055E-03
   3.231183985976834E-03   3.271827277163318E-03   3.312981798018443E-03
   3.354653979019821E-03   3.396850331530519E-03   3.439577448816462E-03
   3.482842007076660E-03   3.526650766486360E-03   3.571010572253349E-03
   3.615928355687531E-03   3.661411135283952E-03   3.707466017819460E-03
   3.754100199463152E-03   3.801320966900784E-03   3.849135698473343E-03
   3.897551865329915E-03   3.946577032595077E-03   3.996218860550956E-03
   4.046485105834164E-03   4.097383622647798E-03   4.148922363988662E-03
   4.201109382889948E-03   4.253952833679534E-03   4.307460973254118E-03
   4.361642162369365E-03   4.416504866946317E-03   4.472057659394178E-03
   4.528309219949791E-03   4.585268338033938E-03   4.642943913624699E-03
   4.701344958648113E-03   4.760480598386275E-03   4.820360072903207E-03
   4.880992738488629E-03   4.942388069119894E-03   5.004555657942329E-03
   5.067505218768164E-03   5.131246587594353E-03   5.195789724139455E-03
   5.261144713399865E-03   5.327321767225631E-03   5.394331225916046E-03
   5.462183559835364E-03   5.530889371048803E-03   5.600459394979146E-03
   5.670904502084183E-03   5.742235699555215E-03   5.814464133036972E-03
   5.887601088369135E-03   5.961657993349768E-03   6.036646419520955E-03
   6.112578083976844E-03   6.189464851194492E-03   6.267318734887703E-03
   6.346151899884194E-03   6.425976664026393E-03   6.506805500096097E-03
   6.588651037763391E-03   6.671526065560048E-03   6.755443532877770E-03
   6.840416551991566E-03   6.926458400108547E-03   7.013582521442533E-03
   7.101802529314740E-03   7.191132208280875E-03   7.281585516285032E-03
   7.373176586840609E-03   7.465919731238726E-03   7.559829440784379E-03
   7.654920389060741E-03   7.751207434221957E-03   7.848705621314725E-03
   7.947430184629138E-03   8.047396550079073E-03   8.148620337612504E-03
   8.251117363652192E-03   8.354903643566980E-03   8.459995394174257E-03
   8.566409036273870E-03   8.674161197213887E-03   8.783268713488694E-03
   8.893748633369685E-03   9.005618219569109E-03   9.118894951937415E-03
   9.233596530194498E-03   9.349740876695311E-03   9.467346139230315E-03
   9.586430693861036E-03   9.707013147791418E-03   9.829112342275214E-03
   9.952747355559968E-03   1.007793750586806E-02   1.020470235441516E-02
   1.033306170846677E-02   1.046303562443311E-02   1.059464441100297E-02
   1.072790863231702E-02   1.086284911118097E-02   1.099948693231919E-02
   1.113784344566921E-02   1.127794026971773E-02   1.141979929487854E-02
   1.156344268691294E-02   1.170889289039318E-02   1.185617263220947E-02
   1.200530492512111E-02   1.215631307135229E-02   1.230922066623307E-02
   1.246405160188626E-02   1.262083007096056E-02   1.277958057041071E-02
   1.294032790532525E-02   1.310309719280230E-02   1.326791386587420E-02
   1.343480367748141E-02   1.360379270449653E-02   1.377490735179888E-02
   1.394817435640021E-02   1.412362079162252E-02   1.430127407132824E-02
   1.448116195420376E-02   1.466331254809679E-02   1.484775431440821E-02
   1.503451607253924E-02   1.522362700439456E-02   1.541511665894202E-02
   1.560901495682975E-02   1.580535219506128E-02   1.600415905172952E-02
   1.620546659081031E-02   1.640930626701617E-02   1.661570993071126E-02
   1.682470983288796E-02   1.703633863020617E-02   1.725062939009607E-02
   1.746761559592482E-02   1.768733115222859E-02   1.790981039001005E-02
   1.813508807210275E-02   1.836319939860283E-02   1.859418001236915E-02
   1.882806600459257E-02   1.906489392043521E-02   1.930470076474074E-02
   1.954752400781648E-02   1.979340159128818E-02   2.004237193402851E-02
   2.029447393816007E-02   2.054974699513388E-02   2.080823099188448E-02
   2.106996631706221E-02   2.133499386734418E-02   2.160335505382430E-02
   2.187509180848395E-02   2.215024659074390E-02   2.242886239409865E-02
   2.271098275283439E-02   2.299665174883110E-02   2.328591401845062E-02
   2.357881475951109E-02   2.387539973834918E-02   2.417571529697128E-02
   2.447980836029441E-02   2.478772644347839E-02   2.509951765935019E-02
   2.541523072592161E-02   2.573491497400166E-02   2.605862035490449E-02
   2.638639744825445E-02   2.671829746988924E-02   2.705437227986248E-02
   2.739467439054702E-02   2.773925697483997E-02   2.808817387447121E-02
   2.844147960841616E-02   2.879922938141454E-02   2.916147909259629E-02
   2.952828534421574E-02   2.989970545049598E-02   3.027579744658429E-02
   3.065662009762020E-02   3.104223290791775E-02   3.143269613026309E-02
   3.182807077532909E-02   3.222841862120846E-02   3.263380222306658E-02
   3.304428492291608E-02   3.345993085951390E-02   3.388080497838328E-02
   3.430697304196156E-02   3.473850163987570E-02   3.517545819934713E-02
   3.561791099572723E-02   3.606592916316562E-02   3.651958270541247E-02
   3.697894250675666E-02   3.744408034310181E-02   3.791506889318114E-02
   3.839198174991384E-02   3.887489343190405E-02   3.936387939508456E-02
   3.985901604450701E-02   4.036038074628022E-02   4.086805183965887E-02
   4.138210864928415E-02   4.190263149757841E-02   4.242970171729577E-02
   4.296340166423036E-02   4.350381473008470E-02   4.405102535549981E-02
   4.460511904324919E-02   4.516618237159894E-02   4.573430300783555E-02
   4.630956972196431E-02   4.689207240057968E-02   4.748190206091025E-02
   4.807915086504056E-02   4.868391213431134E-02   4.929628036390129E-02
   4.991635123759215E-02   5.054422164271945E-02   5.117998968531149E-02
   5.182375470541836E-02   5.247561729263420E-02   5.313567930181448E-02
   5.380404386899101E-02   5.448081542748728E-02   5.516609972423619E-02
   5.586000383630330E-02   5.656263618761790E-02   5.727410656591436E-02
   5.799452613988684E-02   5.872400747655947E-02   5.946266455887524E-02
   6.021061280350606E-02   6.096796907888682E-02   6.173485172347650E-02
   6.251138056424850E-02   6.329767693541408E-02   6.409386369738092E-02
   6.490006525595041E-02   6.571640758175640E-02   6.654301822994811E-02
   6.738002636012107E-02   6.822756275649854E-02   6.908575984836669E-02
   6.995475173076729E-02   7.083467418544988E-02   7.172566470208819E-02
   7.262786249976320E-02   7.354140854871628E-02   7.446644559237632E-02
   7.540311816966332E-02   7.635157263757318E-02   7.731195719404613E-02
   7.828442190112299E-02   7.926911870839284E-02   8.026620147673517E-02
   8.127582600236109E-02   8.229815004115684E-02   8.333333333333333E-02
   8.438153762838622E-02   8.544292671036911E-02   8.651766642348546E-02
   8.760592469800206E-02   8.870787157648828E-02   8.982367924038598E-02
   9.095352203691266E-02   9.209757650630401E-02   9.325602140939844E-02
   9.442903775556886E-02   9.561680883100604E-02   9.681952022735696E-02
   9.803735987072426E-02   9.927051805102992E-02   1.005191874517484E-01
   1.017835631800142E-01   1.030638427971071E-01   1.043602263493221E-01
   1.056729163992267E-01   1.070021180573118E-01   1.083480390140409E-01
   1.097108895723018E-01   1.110908826802670E-01   1.124882339646670E-01
   1.139031617644830E-01   1.153358871650626E-01   1.167866340326645E-01
   1.182556290494382E-01   1.197431017488438E-01   1.212492845515168E-01
   1.227744128015846E-01   1.243187248034392E-01   1.258824618589728E-01
   1.274658683052816E-01   1.290691915528444E-01   1.306926821241808E-01
   1.323365936929953E-01   1.340011831238153E-01   1.356867105121259E-01
   1.373934392250107E-01   1.391216359423036E-01   1.408715706982576E-01
   1.426435169237388E-01   1.444377514889497E-01   1.462545547466916E-01
   1.480942105761699E-01   1.499570064273508E-01   1.518432333658758E-01
   1.537531861185417E-01   1.556871631193519E-01   1.576454665561475E-01
   1.596284024178247E-01   1.616362805421463E-01   1.636694146641541E-01
   1.657281224651910E-01   1.678127256225398E-01   1.699235498596846E-01
   1.720609249972073E-01   1.742251850043214E-01   1.764166680510562E-01
   1.786357165610966E-01   1.808826772652869E-01   1.831579012558086E-01
   1.854617440410391E-01   1.877945656011007E-01   1.901567304441087E-01
   1.925486076631254E-01   1.949705709938327E-01   1.974229988729285E-01
   1.999062744972582E-01   2.024207858836907E-01   2.049669259297459E-01
   2.075450924749860E-01   2.101556883631791E-01   2.127991215052439E-01
   2.154758049429872E-01   2.181861569136418E-01   2.209306009152173E-01
   2.237095657726727E-01   2.265234857049204E-01   2.293728003926756E-01
   2.322579550471543E-01   2.351794004796416E-01   2.381375931719305E-01
   2.411329953476468E-01   2.441660750444754E-01   2.472373061872890E-01
   2.503471686622027E-01   2.534961483915555E-01   2.566847374098359E-01
   2.599134339405663E-01   2.631827424741474E-01   2.664931738466895E-01
   2.698452453198303E-01   2.732394806615561E-01   2.766764102280460E-01
   2.801565710465359E-01   2.836805068992348E-01   2.872487684082898E-01
   2.908619131218201E-01   2.945205056010394E-01   2.982251175084650E-01
   3.019763276972451E-01   3.057747223016039E-01   3.096208948284253E-01
   3.135154462499929E-01   3.174589850978886E-01   3.214521275580811E-01
   3.254954975672046E-01   3.295897269100481E-01   3.337354553182774E-01
   3.379333305703897E-01   3.421840085929342E-01   3.464881535630009E-01
   3.508464380119967E-01   3.552595429307352E-01   3.597281578758371E-01
   3.642529810774797E-01   3.688347195484948E-01   3.734740891948387E-01
   3.781718149274589E-01   3.829286307755575E-01   3.877452800012890E-01
   3.926225152158954E-01   3.975610984973002E-01   4.025618015091903E-01
   4.076254056215838E-01   4.127527020329261E-01   4.179444918937136E-01
   4.232015864316734E-01   4.285248070785243E-01   4.339149855983209E-01
   4.393729642174242E-01   4.448995957560983E-01   4.504957437617639E-01
   4.561622826439338E-01   4.619000978108354E-01   4.677100858077629E-01
   4.735931544571623E-01   4.795502230004776E-01   4.855822222417900E-01
   4.916900946932515E-01   4.978747947223601E-01   5.041372887010792E-01
   5.104785551568322E-01   5.168995849254060E-01   5.234013813057639E-01
   5.299849602168191E-01   5.366513503561720E-01   5.434015933608427E-01
   5.502367439700362E-01   5.571578701899393E-01   5.641660534606061E-01
   5.712623888249319E-01   5.784479850997529E-01   5.857239650491084E-01
   5.930914655596664E-01   6.005516378183721E-01   6.081056474923198E-01
   6.157546749108875E-01   6.234999152501738E-01   6.313425787197374E-01
   6.392838907517023E-01   6.473250921922314E-01   6.554674394954076E-01
   6.637122049195651E-01   6.720606767260729E-01   6.805141593806372E-01
   6.890739737571229E-01   6.977414573439388E-01   7.065179644530318E-01
   7.154048664314914E-01   7.244035518758335E-01   7.335154268489678E-01
   7.427419150998947E-01   7.520844582861775E-01   7.615445161991939E-01
   7.711235669922408E-01   7.808231074114946E-01   7.906446530298772E-01
   8.005897384838759E-01   8.106599177133239E-01   8.208567642042151E-01
   8.311818712345606E-01   8.416368521233378E-01   8.522233404825842E-01
   8.629429904726412E-01   8.737974770606308E-01   8.847884962821676E-01
   8.959177655063629E-01   9.071870237041790E-01   9.185980317201338E-01
   9.301525725474470E-01   9.418524516066324E-01   9.536994970275935E-01
   9.656955599352836E-01   9.778425147389345E-01   9.901422594249496E-01
   1.002596715853462E+00   1.015207830058623E+00   1.027977572552689E+00
   1.040907938633901E+00   1.054000948698268E+00   1.067258648555254E+00
   1.080683109747428E+00   1.094276429874169E+00   1.108040732919399E+00
   1.121978169583476E+00   1.136090917619230E+00   1.150381182172258E+00
   1.164851196125471E+00   1.179503220447984E+00   1.194339544548412E+00
   1.209362486632577E+00   1.224574394065745E+00   1.239977643739404E+00
   1.255574642442649E+00   1.271367827238265E+00   1.287359665843502E+00
   1.303552657015681E+00   1.319949330942619E+00   1.336552249637973E+00
   1.353364007341572E+00   1.370387230924755E+00   1.387624580300845E+00
   1.405078748840754E+00   1.422752463793822E+00   1.440648486713972E+00
   1.458769613891191E+00   1.477118676788470E+00   1.495698542484221E+00
   1.514512114120256E+00   1.533562331355423E+00   1.552852170824918E+00
   1.572384646605407E+00   1.592162810685972E+00   1.612189753444985E+00
   1.632468604133002E+00   1.653002531361694E+00   1.673794743598972E+00
   1.694848489670302E+00   1.716167059266336E+00   1.737753783456953E+00
   1.759612035211719E+00   1.781745229926945E+00   1.804156825959340E+00
   1.826850325166373E+00   1.849829273453472E+00   1.873097261328052E+00
   1.896657924460561E+00   1.920514944252550E+00   1.944672048411894E+00
   1.969133011535271E+00   1.993901655697929E+00   2.018981851050915E+00
   2.044377516425781E+00   2.070092619946904E+00   2.096131179651533E+00
   2.122497264117591E+00   2.149194993099422E+00   2.176228538171499E+00
   2.203602123380234E+00   2.231320025904013E+00   2.259386576721492E+00
   2.287806161288342E+00   2.316583220222474E+00   2.345722249997888E+00
   2.375227803647276E+00   2.405104491473419E+00   2.435356981769579E+00
   2.465990001548915E+00   2.497008337283086E+00   2.528416835650163E+00
   2.560220404291911E+00   2.592424012580639E+00   2.625032692395664E+00
   2.658051538909542E+00   2.691485711384227E+00   2.725340433977181E+00
   2.759620996557693E+00   2.794332755533414E+00   2.829481134687296E+00
   2.865071626025102E+00   2.901109790633504E+00   2.937601259549045E+00
   2.974551734637993E+00   3.011966989487245E+00   3.049852870306503E+00
   3.088215296841716E+00   3.127060263300084E+00   3.166393839286650E+00
   3.206222170752678E+00   3.246551480956002E+00   3.287388071433380E+00
   3.328738322985161E+00   3.370608696672286E+00   3.413005734825817E+00
   3.455936062069235E+00   3.499406386353501E+00   3.543423500005232E+00
   3.587994280787997E+00   3.633125692976959E+00   3.678824788447107E+00
   3.725098707775071E+00   3.771954681354897E+00   3.819400030527793E+00
   3.867442168726081E+00   3.916088602631612E+00   3.965346933348642E+00
   4.015224857591568E+00   4.065730168887538E+00   4.116870758794183E+00
   4.168654618132734E+00   4.221089838236556E+00   4.274184612215476E+00
   4.327947236235958E+00   4.382386110817371E+00   4.437509742144641E+00
   4.493326743397297E+00   4.549845836095353E+00   4.607075851462040E+00
   4.665025731803680E+00   4.723704531906989E+00   4.783121420453853E+00
   4.843285681453999E+00   4.904206715695621E+00   4.965894042214249E+00
   5.028357299780171E+00   5.091606248404448E+00   5.155650770863990E+00
   5.220500874245743E+00   5.286166691510279E+00   5.352658483075163E+00
   5.419986638418084E+00   5.488161677700308E+00   5.557194253410434E+00
   5.627095152028846E+00   5.697875295713185E+00   5.769545744004887E+00
   5.842117695557321E+00   5.915602489885578E+00   5.990011609138256E+00
   6.065356679891646E+00   6.141649474966321E+00   6.218901915266742E+00
   6.297126071643890E+00   6.376334166781324E+00   6.456538577105081E+00
   6.537751834717429E+00   6.619986629355111E+00   6.703255810372109E+00
   6.787572388747345E+00   6.872949539117760E+00   6.959400601836773E+00
   7.046939085058834E+00   7.135578666850055E+00   7.225333197325408E+00
   7.316216700812910E+00   7.408243378044861E+00   7.501427608376818E+00
   7.595783952034370E+00   7.691327152388157E+00   7.788072138257646E+00
   7.886034026243679E+00   7.985228123090573E+00   8.085669928077786E+00
   8.187375135441672E+00   8.290359636827828E+00   8.394639523774094E+00
   8.500231090224974E+00   8.607150835077571E+00   8.715415464759518E+00
   8.825041895839503E+00   8.936047257670380E+00   9.048448895065800E+00
   9.162264371010300E+00   9.277511469403530E+00   9.394208197839111E+00
   9.512372790418253E+00   9.632023710598972E+00   9.753179654080993E+00
   9.875859551726945E+00   1.000008257252046E+01   1.012586812656125E+01
   1.025323586809805E+01   1.038220569859962E+01   1.051279776986435E+01
   1.064503248716909E+01   1.077893051245741E+01   1.091451276756822E+01
   1.105180043750472E+01   1.119081497374463E+01   1.133157809759209E+01
   1.147411180357156E+01   1.161843836286460E+01   1.176458032678975E+01
   1.191256053032617E+01   1.206240209568176E+01   1.221412843590593E+01
   1.236776325854805E+01   1.252333056936175E+01   1.268085467605580E+01
   1.284036019209241E+01   1.300187204053293E+01   1.316541545793229E+01
   1.333101599828222E+01   1.349869953700403E+01   1.366849227499183E+01
   1.384042074270634E+01   1.401451180432045E+01   1.419079266191676E+01
   1.436929085973786E+01   1.455003428849037E+01   1.473305118970270E+01
   1.491837016013806E+01   1.510602015626261E+01   1.529603049877000E+01
   1.548843087716286E+01   1.568325135439171E+01   1.588052237155250E+01
   1.608027475264305E+01   1.628253970937925E+01   1.648734884607214E+01
   1.669473416456599E+01   1.690472806923874E+01   1.711736337206528E+01
   1.733267329774422E+01   1.755069148888956E+01   1.777145201128717E+01
   1.799498935921784E+01   1.822133846084702E+01   1.845053468368226E+01
   1.868261384009977E+01   1.891761219293984E+01   1.915556646117324E+01
   1.939651382563853E+01   1.964049193485155E+01   1.988753891088832E+01
   2.013769335534140E+01   2.039099435535170E+01   2.064748148971586E+01
   2.090719483507038E+01   2.117017497215394E+01   2.143646299214791E+01
   2.170610050309723E+01   2.197912963641160E+01   2.225559305344851E+01
   2.253553395217942E+01   2.281899607393921E+01   2.310602371026117E+01
   2.339666170979746E+01   2.369095548532674E+01   2.398895102085028E+01
   2.429069487877668E+01   2.459623420719769E+01   2.490561674725505E+01
   2.521889084059999E+01   2.553610543694705E+01   2.585731010172220E+01
   2.618255502380785E+01   2.651189102338484E+01   2.684536955987305E+01
   2.718304273997236E+01   2.752496332580408E+01   2.787118474315542E+01
   2.822176108982730E+01   2.857674714408703E+01   2.893619837322792E+01
   2.930017094223573E+01   2.966872172256492E+01   3.004190830102481E+01
   3.041978898877741E+01   3.080242283044910E+01   3.118986961335601E+01
   3.158218987684630E+01   3.197944492175935E+01   3.238169682000407E+01
   3.278900842425804E+01   3.320144337778800E+01   3.361906612439459E+01
   3.404194191848171E+01   3.447013683525240E+01   3.490371778103369E+01
   3.534275250373038E+01   3.578730960341116E+01   3.623745854302739E+01
   3.669326965926658E+01   3.715481417354313E+01   3.762216420312630E+01
   3.809539277240908E+01   3.857457382431830E+01   3.905978223186808E+01
   3.955109380985941E+01   4.004858532672578E+01   4.055233451652894E+01
   4.106242009110473E+01   4.157892175236184E+01   4.210192020473579E+01
   4.263149716779868E+01   4.316773538902850E+01   4.371071865673837E+01
   4.426053181316843E+01   4.481726076774311E+01   4.538099251049412E+01
   4.595181512565323E+01   4.652981780541550E+01   4.711509086387543E+01
   4.770772575113932E+01   4.830781506761387E+01   4.891545257847574E+01
   4.953073322832235E+01   5.015375315600685E+01   5.078460970966068E+01
   5.142340146190364E+01   5.207022822524674E+01   5.272519106768784E+01
   5.338839232850341E+01   5.405993563423991E+01   5.473992591490498E+01
   5.542846942036348E+01   5.612567373693912E+01   5.683164780422462E+01
   5.754650193210453E+01   5.827034781799048E+01   5.900329856427495E+01
   5.974546869600332E+01   6.049697417876845E+01   6.125793243683116E+01
   6.202846237146725E+01   6.280868437954678E+01   6.359872037234597E+01
   6.439869379459583E+01   6.520872964377138E+01   6.602895448962184E+01
   6.685949649394824E+01   6.770048543062866E+01   6.855205270589521E+01
   6.941433137886740E+01   7.028745618234196E+01   7.117156354384596E+01
   7.206679160695349E+01   7.297328025287050E+01   7.389117112229243E+01
   7.482060763753486E+01   7.576173502494436E+01   7.671470033759009E+01
   7.767965247824070E+01   7.865674222263165E+01   7.964612224302313E+01
   8.064794713205639E+01   8.166237342690869E+01   8.268955963375218E+01
   8.372966625252182E+01   8.478285580199260E+01   8.584929284517449E+01
   8.692914401502533E+01   8.802257804048709E+01   8.912976577285117E+01
   9.025088021245301E+01   9.138609653570488E+01   9.253559212246709E+01
   9.369954658376338E+01   9.487814178984677E+01   9.607156189861571E+01
   9.727999338439044E+01   9.850362506704933E+01   9.974264814153196E+01
   1.009972562077149E+02
    </PP_R>
    <PP_RAB>
   9.498770474526212E-07   9.618250298635650E-07   9.739232993922731E-07
   9.861737464179729E-07   9.985782850979373E-07   1.011138853666572E-06
   1.023857414738269E-06   1.036735955614074E-06   1.049776488592199E-06
   1.062981051282453E-06   1.076351706924622E-06   1.089890544710853E-06
   1.103599680112094E-06   1.117481255208643E-06   1.131537439024852E-06
   1.145770427868040E-06   1.160182445671670E-06   1.174775744342846E-06
   1.189552604114175E-06   1.204515333900060E-06   1.219666271657473E-06
   1.235007784751263E-06   1.250542270324063E-06   1.266272155670849E-06
   1.282199898618209E-06   1.298327987908385E-06   1.314658943588140E-06
   1.331195317402525E-06   1.347939693193592E-06   1.364894687304125E-06
   1.382062948986450E-06   1.399447160816382E-06   1.417050039112390E-06
   1.434874334360018E-06   1.452922831641665E-06   1.471198351071752E-06
   1.489703748237369E-06   1.508441914644475E-06   1.527415778169691E-06
   1.546628303517799E-06   1.566082492684971E-06   1.585781385427845E-06
   1.605728059738490E-06   1.625925632325346E-06   1.646377259100226E-06
   1.667086135671421E-06   1.688055497843028E-06   1.709288622120548E-06
   1.730788826222848E-06   1.752559469600564E-06   1.774603953961015E-06
   1.796925723799732E-06   1.819528266938667E-06   1.842415115071167E-06
   1.865589844313823E-06   1.889056075765224E-06   1.912817476071778E-06
   1.936877758000626E-06   1.961240681019768E-06   1.985910051885496E-06
   2.010889725237197E-06   2.036183604199653E-06   2.061795640992913E-06
   2.087729837549832E-06   2.113990246141390E-06   2.140580970009853E-06
   2.167506164009926E-06   2.194770035257952E-06   2.222376843789279E-06
   2.250330903223911E-06   2.278636581440505E-06   2.307298301258872E-06
   2.336320541131045E-06   2.365707835841049E-06   2.395464777213475E-06
   2.425596014830952E-06   2.456106256760660E-06   2.487000270289972E-06
   2.518282882671358E-06   2.549958981876649E-06   2.582033517360790E-06
   2.614511500835207E-06   2.647398007050894E-06   2.680698174591354E-06
   2.714417206675520E-06   2.748560371970752E-06   2.783133005416095E-06
   2.818140509055861E-06   2.853588352883717E-06   2.889482075697384E-06
   2.925827285964076E-06   2.962629662696841E-06   2.999894956341920E-06
   3.037628989677258E-06   3.075837658722340E-06   3.114526933659438E-06
   3.153702859766474E-06   3.193371558361607E-06   3.233539227759696E-06
   3.274212144240813E-06   3.315396663030903E-06   3.357099219294819E-06
   3.399326329141822E-06   3.442084590643731E-06   3.485380684865909E-06
   3.529221376911158E-06   3.573613516976807E-06   3.618564041425056E-06
   3.664079973866800E-06   3.710168426259093E-06   3.756836600016386E-06
   3.804091787135775E-06   3.851941371336388E-06   3.900392829213104E-06
   3.949453731404800E-06   3.999131743777254E-06   4.049434628620970E-06
   4.100370245864045E-06   4.151946554300303E-06   4.204171612832873E-06
   4.257053581733403E-06   4.310600723917122E-06   4.364821406233937E-06
   4.419724100775771E-06   4.475317386200354E-06   4.531609949071635E-06
   4.588610585217090E-06   4.646328201102085E-06   4.704771815221527E-06
   4.763950559509035E-06   4.823873680763797E-06   4.884550542095429E-06
   4.945990624386956E-06   5.008203527776236E-06   5.071198973156003E-06
   5.134986803692762E-06   5.199576986364810E-06   5.264979613519598E-06
   5.331204904450679E-06   5.398263206994505E-06   5.466164999147276E-06
   5.534920890702163E-06   5.604541624907105E-06   5.675038080143464E-06
   5.746421271625804E-06   5.818702353123021E-06   5.891892618701154E-06
   5.966003504488110E-06   6.041046590460564E-06   6.117033602253388E-06
   6.193976412991765E-06   6.271887045146416E-06   6.350777672412124E-06
   6.430660621609897E-06   6.511548374613085E-06   6.593453570297654E-06
   6.676389006517066E-06   6.760367642101966E-06   6.845402598885013E-06
   6.931507163751224E-06   7.018694790714029E-06   7.106979103017529E-06
   7.196373895265138E-06   7.286893135575012E-06   7.378550967762631E-06
   7.471361713550728E-06   7.565339874807178E-06   7.660500135810871E-06
   7.756857365546185E-06   7.854426620026328E-06   7.953223144645794E-06
   8.053262376562573E-06   8.154559947110181E-06   8.257131684240099E-06
   8.360993614994960E-06   8.466161968012720E-06   8.572653176062532E-06
   8.680483878612302E-06   8.789670924428678E-06   8.900231374209737E-06
   9.012182503250660E-06   9.125541804143154E-06   9.240326989508603E-06
   9.356555994765747E-06   9.474246980933151E-06   9.593418337466815E-06
   9.714088685133675E-06   9.836276878921055E-06   9.960002010982817E-06
   1.008528341362260E-05   1.021214066231441E-05   1.034059357876147E-05
   1.047066223399332E-05   1.060236695150195E-05   1.073572831041745E-05
   1.087076714872344E-05   1.100750456651318E-05   1.114596192928638E-05
   1.128616087128766E-05   1.142812329888697E-05   1.157187139400240E-05
   1.171742761756632E-05   1.186481471303477E-05   1.201405570994127E-05
   1.216517392749526E-05   1.231819297822564E-05   1.247313677167044E-05
   1.263002951811260E-05   1.278889573236296E-05   1.294976023759072E-05
   1.311264816920208E-05   1.327758497876778E-05   1.344459643799987E-05
   1.361370864277863E-05   1.378494801723015E-05   1.395834131785503E-05
   1.413391563770931E-05   1.431169841063765E-05   1.449171741556002E-05
   1.467400078081223E-05   1.485857698854089E-05   1.504547487915404E-05
   1.523472365582732E-05   1.542635288906708E-05   1.562039252133096E-05
   1.581687287170619E-05   1.601582464064732E-05   1.621727891477301E-05
   1.642126717172342E-05   1.662782128507878E-05   1.683697352933946E-05
   1.704875658496919E-05   1.726320354350131E-05   1.748034791270933E-05
   1.770022362184280E-05   1.792286502692852E-05   1.814830691613908E-05
   1.837658451522829E-05   1.860773349303545E-05   1.884178996705866E-05
   1.907879050909810E-05   1.931877215097072E-05   1.956177239029626E-05
   1.980782919635652E-05   2.005698101602805E-05   2.030926677978958E-05
   2.056472590780498E-05   2.082339831608274E-05   2.108532442271291E-05
   2.135054515418256E-05   2.161910195177056E-05   2.189103677802295E-05
   2.216639212330956E-05   2.244521101246330E-05   2.272753701150289E-05
   2.301341423444005E-05   2.330288735017250E-05   2.359600158946351E-05
   2.389280275200930E-05   2.419333721359539E-05   2.449765193334282E-05
   2.480579446104571E-05   2.511781294460091E-05   2.543375613753129E-05
   2.575367340660354E-05   2.607761473954182E-05   2.640563075283848E-05
   2.673777269966295E-05   2.707409247787015E-05   2.741464263810970E-05
   2.775947639203697E-05   2.810864762062759E-05   2.846221088259643E-05
   2.882022142292248E-05   2.918273518148107E-05   2.954980880178448E-05
   2.992149963983274E-05   3.029786577307550E-05   3.067896600948676E-05
   3.106485989675387E-05   3.145560773158177E-05   3.185127056911468E-05
   3.225191023247593E-05   3.265758932242801E-05   3.306837122715412E-05
   3.348432013216257E-05   3.390550103031607E-05   3.433197973198684E-05
   3.476382287533966E-05   3.520109793674433E-05   3.564387324131878E-05
   3.609221797360524E-05   3.654620218838025E-05   3.700589682160101E-05
   3.747137370148924E-05   3.794270555975441E-05   3.841996604295835E-05
   3.890322972402252E-05   3.939257211388030E-05   3.988806967327569E-05
   4.038979982471043E-05   4.089784096454148E-05   4.141227247523054E-05
   4.193317473774776E-05   4.246062914413148E-05   4.299471811020578E-05
   4.353552508845825E-05   4.408313458107950E-05   4.463763215316686E-05
   4.519910444609414E-05   4.576763919104940E-05   4.634332522274325E-05
   4.692625249328940E-05   4.751651208625980E-05   4.811419623091680E-05
   4.871939831662394E-05   4.933221290743847E-05   4.995273575688695E-05
   5.058106382292706E-05   5.121729528309748E-05   5.186152954985828E-05
   5.251386728612435E-05   5.317441042099418E-05   5.384326216567648E-05
   5.452052702961706E-05   5.520631083682896E-05   5.590072074242722E-05
   5.660386524937239E-05   5.731585422542423E-05   5.803679892030875E-05
   5.876681198310142E-05   5.950600747982844E-05   6.025450091129009E-05
   6.101240923110787E-05   6.177985086399868E-05   6.255694572427911E-05
   6.334381523460205E-05   6.414058234492942E-05   6.494737155174319E-05
   6.576430891749831E-05   6.659152209032038E-05   6.742914032395057E-05
   6.827729449794205E-05   6.913611713811004E-05   7.000574243723932E-05
   7.088630627605229E-05   7.177794624444019E-05   7.268080166296216E-05
   7.359501360461420E-05   7.452072491687211E-05   7.545808024401194E-05
   7.640722604971055E-05   7.736831063993116E-05   7.834148418609629E-05
   7.932689874855242E-05   8.032470830032991E-05   8.133506875120122E-05
   8.235813797204239E-05   8.339407581950062E-05   8.444304416097212E-05
   8.550520689989459E-05   8.658073000135684E-05   8.766978151803168E-05
   8.877253161643425E-05   8.988915260351094E-05   9.101981895356291E-05
   9.216470733550762E-05   9.332399664048409E-05   9.449786800980474E-05
   9.568650486325926E-05   9.689009292777447E-05   9.810882026643406E-05
   9.934287730786424E-05   1.005924568759884E-04   1.018577542201563E-04
   1.031389670456524E-04   1.044362955445872E-04   1.057499424271782E-04
   1.070801129534234E-04   1.084270149651736E-04   1.097908589186087E-04
   1.111718579171211E-04   1.125702277446139E-04   1.139861868992177E-04
   1.154199566274312E-04   1.168717609586914E-04   1.183418267403789E-04
   1.198303836732630E-04   1.213376643473927E-04   1.228639042784402E-04
   1.244093419444996E-04   1.259742188233507E-04   1.275587794301895E-04
   1.291632713558347E-04   1.307879453054139E-04   1.324330551375371E-04
   1.340988579039627E-04   1.357856138897622E-04   1.374935866539899E-04
   1.392230430708651E-04   1.409742533714716E-04   1.427474911859818E-04
   1.445430335864118E-04   1.463611611299148E-04   1.482021579026184E-04
   1.500663115640138E-04   1.519539133919036E-04   1.538652583279134E-04
   1.558006450235783E-04   1.577603758870070E-04   1.597447571301338E-04
   1.617540988165657E-04   1.637887149100288E-04   1.658489233234275E-04
   1.679350459685176E-04   1.700474088062067E-04   1.721863418974860E-04
   1.743521794550027E-04   1.765452598952815E-04   1.787659258916030E-04
   1.810145244275470E-04   1.832914068512099E-04   1.855969289301026E-04
   1.879314509067405E-04   1.902953375549321E-04   1.926889582367753E-04
   1.951126869603719E-04   1.975669024382660E-04   2.000519881466190E-04
   2.025683323851288E-04   2.051163283377022E-04   2.076963741338908E-04
   2.103088729110995E-04   2.129542328775772E-04   2.156328673762008E-04
   2.183451949490603E-04   2.210916394028574E-04   2.238726298751257E-04
   2.266886009012844E-04   2.295399924825354E-04   2.324272501546144E-04
   2.353508250574072E-04   2.383111740054401E-04   2.413087595592593E-04
   2.443440500977061E-04   2.474175198911022E-04   2.505296491753564E-04
   2.536809242270009E-04   2.568718374391735E-04   2.601028873985560E-04
   2.633745789632776E-04   2.666874233418022E-04   2.700419381728038E-04
   2.734386476060494E-04   2.768780823842987E-04   2.803607799262332E-04
   2.838872844104299E-04   2.874581468603888E-04   2.910739252306328E-04
   2.947351844938886E-04   2.984424967293647E-04   3.021964412121411E-04
   3.059976045036801E-04   3.098465805434799E-04   3.137439707418774E-04
   3.176903840740201E-04   3.216864371750207E-04   3.257327544363061E-04
   3.298299681031806E-04   3.339787183736156E-04   3.381796534982810E-04
   3.424334298818377E-04   3.467407121854997E-04   3.511021734308901E-04
   3.555184951052020E-04   3.599903672676818E-04   3.645184886574536E-04
   3.691035668026968E-04   3.737463181311998E-04   3.784474680823037E-04
   3.832077512202524E-04   3.880279113489720E-04   3.929087016282886E-04
   3.978508846916137E-04   4.028552327651058E-04   4.079225277883323E-04
   4.130535615364510E-04   4.182491357439237E-04   4.235100622297910E-04
   4.288371630245196E-04   4.342312704984463E-04   4.396932274918391E-04
   4.452238874465904E-04   4.508241145395703E-04   4.564947838176559E-04
   4.622367813344583E-04   4.680510042887726E-04   4.739383611647643E-04
   4.798997718739230E-04   4.859361678988007E-04   4.920484924385570E-04
   4.982377005563377E-04   5.045047593285028E-04   5.108506479957358E-04
   5.172763581160520E-04   5.237828937197301E-04   5.303712714661971E-04
   5.370425208028795E-04   5.437976841260587E-04   5.506378169437477E-04
   5.575639880406149E-04   5.645772796449868E-04   5.716787875979444E-04
   5.788696215245539E-04   5.861509050072460E-04   5.935237757613782E-04
   6.009893858130071E-04   6.085489016788917E-04   6.162035045487661E-04
   6.239543904699019E-04   6.318027705339933E-04   6.397498710663937E-04
   6.477969338177296E-04   6.559452161579275E-04   6.641959912726810E-04
   6.725505483623877E-04   6.810101928435910E-04   6.895762465529524E-04
   6.982500479537913E-04   7.070329523452237E-04   7.159263320739295E-04
   7.249315767485856E-04   7.340500934569934E-04   7.432833069859405E-04
   7.526326600438257E-04   7.620996134860853E-04   7.716856465434563E-04
   7.813922570531063E-04   7.912209616926760E-04   8.011732962172615E-04
   8.112508156993801E-04   8.214550947719551E-04   8.317877278743515E-04
   8.422503295015134E-04   8.528445344562317E-04   8.635719981045837E-04
   8.744343966345912E-04   8.854334273181235E-04   8.965708087761024E-04
   9.078482812470401E-04   9.192676068589536E-04   9.308305699047041E-04
   9.425389771207915E-04   9.543946579696648E-04   9.663994649255766E-04
   9.785552737640374E-04   9.908639838549105E-04   1.003327518459190E-03
   1.015947825029514E-03   1.028726875514461E-03   1.041666666666667E-03
   1.054769220354828E-03   1.068036583879614E-03   1.081470830293568E-03
   1.095074058725026E-03   1.108848394706103E-03   1.122795990504825E-03
   1.136919025461408E-03   1.151219706328800E-03   1.165700267617480E-03
   1.180362971944611E-03   1.195210110387576E-03   1.210244002841962E-03
   1.225466998384053E-03   1.240881475637874E-03   1.256489843146855E-03
   1.272294539750177E-03   1.288298034963839E-03   1.304502829366526E-03
   1.320911454990334E-03   1.337526475716397E-03   1.354350487675512E-03
   1.371386119653773E-03   1.388636033503337E-03   1.406102924558338E-03
   1.423789522056038E-03   1.441698589563283E-03   1.459832925408306E-03
   1.478195363117977E-03   1.496788771860547E-03   1.515616056893960E-03
   1.534680160019808E-03   1.553984060042991E-03   1.573530773237160E-03
   1.593323353816021E-03   1.613364894410556E-03   1.633658526552260E-03
   1.654207421162442E-03   1.675014789047692E-03   1.696083881401574E-03
   1.717417990312634E-03   1.739020449278795E-03   1.760894633728221E-03
   1.783043961546735E-03   1.805471893611871E-03   1.828181934333644E-03
   1.851177632202124E-03   1.874462580341885E-03   1.898040417073448E-03
   1.921914826481772E-03   1.946089538991898E-03   1.970568331951844E-03
   1.995355030222809E-03   2.020453506776829E-03   2.045867683301926E-03
   2.071601530814887E-03   2.097659070281747E-03   2.124044373246058E-03
   2.150761562465091E-03   2.177814812554018E-03   2.205208350638203E-03
   2.232946457013708E-03   2.261033465816087E-03   2.289473765697608E-03
   2.318271800512989E-03   2.347432070013759E-03   2.376959130551358E-03
   2.406857595789067E-03   2.437132137422908E-03   2.467787485911606E-03
   2.498828431215727E-03   2.530259823546134E-03   2.562086574121824E-03
   2.594313655937325E-03   2.626946104539740E-03   2.659989018815549E-03
   2.693447561787340E-03   2.727326961420523E-03   2.761632511440217E-03
   2.796369572158409E-03   2.831543571311506E-03   2.867160004908445E-03
   2.903224438089429E-03   2.939742505995520E-03   2.976719914649131E-03
   3.014162441845585E-03   3.052075938055943E-03   3.090466327341113E-03
   3.129339608277534E-03   3.168701854894444E-03   3.208559217622949E-03
   3.248917924257078E-03   3.289784280926843E-03   3.331164673083619E-03
   3.373065566497879E-03   3.415493508269452E-03   3.458455127850575E-03
   3.501957138081698E-03   3.546006336240435E-03   3.590609605103622E-03
   3.635773914022752E-03   3.681506320012993E-03   3.727813968855813E-03
   3.774704096215564E-03   3.822184028770049E-03   3.870261185355316E-03
   3.918943078124911E-03   3.968237313723607E-03   4.018151594476014E-03
   4.068693719590058E-03   4.119871586375601E-03   4.171693191478468E-03
   4.224166632129872E-03   4.277300107411678E-03   4.331101919537512E-03
   4.385580475149958E-03   4.440744286634190E-03   4.496601973447963E-03
   4.553162263468497E-03   4.610433994356186E-03   4.668426114935484E-03
   4.727147686593237E-03   4.786607884694469E-03   4.846816000016113E-03
   4.907781440198693E-03   4.969513731216253E-03   5.032022518864879E-03
   5.095317570269799E-03   5.159408775411576E-03   5.224306148671420E-03
   5.290019830395919E-03   5.356560088481554E-03   5.423937319979011E-03
   5.492162052717802E-03   5.561244946951229E-03   5.631196797022049E-03
   5.702028533049172E-03   5.773751222635442E-03   5.846376072597036E-03
   5.919914430714529E-03   5.994377787505970E-03   6.069777778022375E-03
   6.146126183665643E-03   6.223434934029502E-03   6.301716108763490E-03
   6.380981939460403E-03   6.461244811567575E-03   6.542517266322049E-03
   6.624812002710239E-03   6.708141879452150E-03   6.792519917010534E-03
   6.877959299625452E-03   6.964473377374242E-03   7.052075668257577E-03
   7.140779860311648E-03   7.230599813746912E-03   7.321549563113855E-03
   7.413643319495830E-03   7.506895472729651E-03   7.601320593653997E-03
   7.696933436386094E-03   7.793748940627173E-03   7.891782233996718E-03
   7.991048634396279E-03   8.091563652402893E-03   8.193342993692596E-03
   8.296402561494564E-03   8.400758459075912E-03   8.506426992257966E-03
   8.613424671964036E-03   8.721768216799234E-03   8.831474555662898E-03
   8.942560830393643E-03   9.055044398447919E-03   9.168942835612098E-03
   9.284273938748684E-03   9.401055728577220E-03   9.519306452489926E-03
   9.639044587403011E-03   9.760288842643683E-03   9.883058162873465E-03
   1.000737173104845E-02   1.013324897141655E-02   1.026070955255269E-02
   1.038977339043201E-02   1.052046065154172E-02   1.065279175603230E-02
   1.078678738090802E-02   1.092246846325789E-02   1.105985620352710E-02
   1.119897206882954E-02   1.133983779630224E-02   1.148247539650167E-02
   1.162690715684309E-02   1.177315564508291E-02   1.192124371284492E-02
   1.207119449919104E-02   1.222303143423668E-02   1.237677824281187E-02
   1.253245894816827E-02   1.269009787573278E-02   1.284971965690861E-02
   1.301134923292376E-02   1.317501185872836E-02   1.334073310694067E-02
   1.350853887184285E-02   1.367845537342711E-02   1.385050916149249E-02
   1.402472711979345E-02   1.420113647024038E-02   1.437976477715322E-02
   1.456063995156838E-02   1.474379025559980E-02   1.492924430685516E-02
   1.511703108290722E-02   1.530717992582182E-02   1.549972054674255E-02
   1.569468303053312E-02   1.589209784047831E-02   1.609199582304378E-02
   1.629440821269601E-02   1.649936663678274E-02   1.670690312047466E-02
   1.691705009176965E-02   1.712984038655944E-02   1.734530725376057E-02
   1.756348436050943E-02   1.778440579742277E-02   1.800810608392465E-02
   1.823462017363988E-02   1.846398345985588E-02   1.869623178105277E-02
   1.893140142650319E-02   1.916952914194279E-02   1.941065213531148E-02
   1.965480808256759E-02   1.990203513357466E-02   2.015237191806231E-02
   2.040585755166252E-02   2.066253164202118E-02   2.092243429498716E-02
   2.118560612087878E-02   2.145208824082920E-02   2.172192229321191E-02
   2.199515044014649E-02   2.227181537408682E-02   2.255196032449175E-02
   2.283562906457966E-02   2.312286591816840E-02   2.341371576660065E-02
   2.370822405575701E-02   2.400643680315688E-02   2.430840060514867E-02
   2.461416264419089E-02   2.492377069622412E-02   2.523727313813644E-02
   2.555471895532227E-02   2.587615774933630E-02   2.620163974564416E-02
   2.653121580146989E-02   2.686493741374277E-02   2.720285672714375E-02
   2.754502654225292E-02   2.789150032380016E-02   2.824233220901866E-02
   2.859757701610427E-02   2.895729025278093E-02   2.932152812497360E-02
   2.969034754559096E-02   3.006380614341774E-02   3.044196227211973E-02
   3.082487501936144E-02   3.121260421603857E-02   3.160521044562704E-02
   3.200275505364889E-02   3.240530015725798E-02   3.281290865494580E-02
   3.322564423636928E-02   3.364357139230283E-02   3.406675542471476E-02
   3.449526245697116E-02   3.492915944416768E-02   3.536851418359120E-02
   3.581339532531378E-02   3.626387238291880E-02   3.672001574436306E-02
   3.718189668297491E-02   3.764958736859056E-02   3.812316087883130E-02
   3.860269121052146E-02   3.908825329125105E-02   3.957992299108313E-02
   4.007777713440848E-02   4.058189351195002E-02   4.109235089291725E-02
   4.160922903731452E-02   4.213260870840358E-02   4.266257168532271E-02
   4.319920077586543E-02   4.374257982941876E-02   4.429279375006540E-02
   4.484992850984997E-02   4.541407116221199E-02   4.598530985558884E-02
   4.656373384718840E-02   4.714943351693621E-02   4.774250038159741E-02
   4.834302710907602E-02   4.895110753289516E-02   4.956683666685802E-02
   5.019031071989460E-02   5.082162711109423E-02   5.146088448492728E-02
   5.210818272665918E-02   5.276362297795695E-02   5.342730765269345E-02
   5.409934045294948E-02   5.477982638521714E-02   5.546887177680802E-02
   5.616658429246622E-02   5.687307295119192E-02   5.758844814327551E-02
   5.831282164754600E-02   5.904630664883737E-02   5.978901775567317E-02
   6.054107101817499E-02   6.130258394619527E-02   6.207367552767812E-02
   6.285446624725215E-02   6.364507810505560E-02   6.444563463579987E-02
   6.525626092807178E-02   6.607708364387849E-02   6.690823103843954E-02
   6.774983298022606E-02   6.860202097125385E-02   6.946492816763043E-02
   7.033868940036057E-02   7.122344119641481E-02   7.211932180006109E-02
   7.302647119446652E-02   7.394503112356973E-02   7.487514511422820E-02
   7.581695849864557E-02   7.677061843707901E-02   7.773627394083428E-02
   7.871407589554863E-02   7.970417708476656E-02   8.070673221381353E-02
   8.172189793396788E-02   8.274983286693889E-02   8.379069762965137E-02
   8.484465485934183E-02   8.591186923897200E-02   8.699250752295967E-02
   8.808673856323543E-02   8.919473333562569E-02   9.031666496656761E-02
   9.145270876016137E-02   9.260304222556076E-02   9.376784510471023E-02
   9.494729940042963E-02   9.614158940485197E-02   9.735090172822058E-02
   9.857542532804599E-02   9.981535153863216E-02   1.010708741009723E-01
   1.023421891930209E-01   1.036294954603479E-01   1.049329940471762E-01
   1.062528886278122E-01   1.075893854384696E-01   1.089426933094940E-01
   1.103130236979938E-01   1.117005907208797E-01   1.131056111883225E-01
   1.145283046376288E-01   1.159688933675441E-01   1.174276024729889E-01
   1.189046598802282E-01   1.204002963824872E-01   1.219147456760124E-01
   1.234482443965868E-01   1.250010321565058E-01   1.265733515820156E-01
   1.281654483512256E-01   1.297775712324953E-01   1.314099721233044E-01
   1.330629060896136E-01   1.347366314057177E-01   1.364314095946027E-01
   1.381475054688090E-01   1.398851871718078E-01   1.416447262199012E-01
   1.434263975446445E-01   1.452304795358074E-01   1.470572540848719E-01
   1.489070066290771E-01   1.507800261960220E-01   1.526766054488242E-01
   1.545970407318507E-01   1.565416321170219E-01   1.585106834506975E-01
   1.605045024011551E-01   1.625234005066616E-01   1.645676932241536E-01
   1.666376999785278E-01   1.687337442125504E-01   1.708561534373979E-01
   1.730052592838293E-01   1.751813975540057E-01   1.773849082739595E-01
   1.796161357467233E-01   1.818754286061297E-01   1.841631398712838E-01
   1.864796270017257E-01   1.888252519532827E-01   1.912003812346250E-01
   1.936053859645358E-01   1.960406419298963E-01   1.985065296444063E-01
   2.010034344080381E-01   2.035317463672406E-01   2.060918605759018E-01
   2.086841770570748E-01   2.113091008654843E-01   2.139670421508160E-01
   2.166584162218027E-01   2.193836436111195E-01   2.221431501410897E-01
   2.249373669902230E-01   2.277667307605877E-01   2.306316835460283E-01
   2.335326730012472E-01   2.364701524117480E-01   2.394445807646655E-01
   2.424564228204816E-01   2.455061491856444E-01   2.485942363861040E-01
   2.517211669417675E-01   2.548874294418962E-01   2.580935186214483E-01
   2.613399354383798E-01   2.646271871519243E-01   2.679557874018489E-01
   2.713262562887154E-01   2.747391204551450E-01   2.781949131681064E-01
   2.816941744022427E-01   2.852374509242402E-01   2.888252963782646E-01
   2.924582713724683E-01   2.961369435665843E-01   2.998618877606285E-01
   3.036336859847085E-01   3.074529275899712E-01   3.113202093406882E-01
   3.152361355074998E-01   3.192013179618381E-01   3.232163762715276E-01
   3.272819377975982E-01   3.313986377923105E-01   3.355671194984131E-01
   3.397880342496545E-01   3.440620415725510E-01   3.483898092894428E-01
   3.527720136228412E-01   3.572093393010879E-01   3.617024796653491E-01
   3.662521367779467E-01   3.708590215320616E-01   3.755238537628101E-01
   3.802473623597176E-01   3.850302853806138E-01   3.898733701669502E-01
   3.947773734605787E-01   3.997430615219919E-01   4.047712102500509E-01
   4.098626053032255E-01   4.150180422223499E-01   4.202383265549324E-01
   4.255242739810214E-01   4.308767104406550E-01   4.362964722629212E-01
   4.417844062966298E-01   4.473413700426395E-01   4.529682317878423E-01
   4.586658707408322E-01   4.644351771692892E-01   4.702770525390787E-01
   4.761924096551135E-01   4.821821728039788E-01   4.882472778983511E-01
   4.943886726232427E-01   5.006073165840722E-01   5.069041814566118E-01
   5.132802511388092E-01   5.197365219045230E-01   5.262740025591974E-01
   5.328937145974836E-01   5.395966923628562E-01   5.463839832092297E-01
   5.532566476646054E-01   5.602157595967889E-01   5.672624063811765E-01
   5.743976890706655E-01   5.816227225676938E-01   5.889386357984429E-01
   5.963465718892416E-01   6.038476883451733E-01   6.114431572309468E-01
   6.191341653540294E-01   6.269219144500857E-01   6.348076213707585E-01
   6.427925182737955E-01   6.508778528155843E-01   6.590648883460980E-01
   6.673549041062926E-01   6.757491954279989E-01   6.842490739363123E-01
   6.928558677545436E-01   7.015709217117391E-01   7.103955975528078E-01
   7.193312741513066E-01   7.283793477248811E-01   7.375412320534369E-01
   7.468183587000415E-01   7.562121772346057E-01   7.657241554603895E-01
   7.753557796433407E-01   7.851085547443347E-01   7.949840046543247E-01
   8.049836724324479E-01   8.151091205471422E-01   8.253619311202730E-01
   8.357437061743531E-01   8.462560678828583E-01   8.569006588236902E-01
   8.676791422358425E-01   8.785932022792745E-01   8.896445442980746E-01
   9.008348950869186E-01   9.121660031608813E-01   9.236396390286554E-01
   9.352575954691859E-01   9.470216878118045E-01   9.589337542198761E-01
   9.709956559780087E-01   9.832092777828957E-01   9.955765280377892E-01
   1.008099339150705E+00   1.020779667836359E+00   1.033619495421902E+00
   1.046620828156523E+00   1.059785697524908E+00   1.073116160564681E+00
   1.086614300187817E+00   1.100282225506089E+00   1.114122072160640E+00
   1.128136002655663E+00   1.142326206696311E+00   1.156694901530839E+00
   1.171244332297042E+00   1.185976772373085E+00   1.200894523732696E+00
   1.215999917304881E+00   1.231295313338117E+00   1.246783101769150E+00
   1.262465702596436E+00
    </PP_RAB>
  </PP_MESH>
  <PP_NLCC size="1129">
   1.461569326034897E+00   1.461569322989370E+00   1.461569319866745E+00
   1.461569316665071E+00   1.461569313382346E+00   1.461569310016518E+00
   1.461569306565484E+00   1.461569303027087E+00   1.461569299399114E+00
   1.461569295679299E+00   1.461569291865317E+00   1.461569287954783E+00
   1.461569283945253E+00   1.461569279834222E+00   1.461569275619120E+00
   1.461569271297312E+00   1.461569266866096E+00   1.461569262322704E+00
   1.461569257664295E+00   1.461569252887959E+00   1.461569247990708E+00
   1.461569242969484E+00   1.461569237821146E+00   1.461569232542477E+00
   1.461569227130178E+00   1.461569221580867E+00   1.461569215891074E+00
   1.461569210057243E+00   1.461569204075728E+00   1.461569197942790E+00
   1.461569191654597E+00   1.461569185207217E+00   1.461569178596620E+00
   1.461569171818676E+00   1.461569164869148E+00   1.461569157743691E+00
   1.461569150437852E+00   1.461569142947065E+00   1.461569135266648E+00
   1.461569127391801E+00   1.461569119317601E+00   1.461569111039001E+00
   1.461569102550828E+00   1.461569093847776E+00   1.461569084924405E+00
   1.461569075775137E+00   1.461569066394255E+00   1.461569056775895E+00
   1.461569046914045E+00   1.461569036802541E+00   1.461569026435064E+00
   1.461569015805132E+00   1.461569004906103E+00   1.461568993731163E+00
   1.461568982273328E+00   1.461568970525437E+00   1.461568958480147E+00
   1.461568946129929E+00   1.461568933467064E+00   1.461568920483637E+00
   1.461568907171533E+00   1.461568893522432E+00   1.461568879527801E+00
   1.461568865178896E+00   1.461568850466746E+00   1.461568835382157E+00
   1.461568819915700E+00   1.461568804057707E+00   1.461568787798267E+00
   1.461568771127219E+00   1.461568754034140E+00   1.461568736508349E+00
   1.461568718538890E+00   1.461568700114532E+00   1.461568681223760E+00
   1.461568661854766E+00   1.461568641995443E+00   1.461568621633380E+00
   1.461568600755849E+00   1.461568579349801E+00   1.461568557401856E+00
   1.461568534898297E+00   1.461568511825058E+00   1.461568488167718E+00
   1.461568463911489E+00   1.461568439041211E+00   1.461568413541340E+00
   1.461568387395936E+00   1.461568360588659E+00   1.461568333102754E+00
   1.461568304921038E+00   1.461568276025902E+00   1.461568246399281E+00
   1.461568216022659E+00   1.461568184877050E+00   1.461568152942986E+00
   1.461568120200509E+00   1.461568086629152E+00   1.461568052207934E+00
   1.461568016915338E+00   1.461567980729308E+00   1.461567943627224E+00
   1.461567905585897E+00   1.461567866581550E+00   1.461567826589805E+00
   1.461567785585665E+00   1.461567743543501E+00   1.461567700437035E+00
   1.461567656239326E+00   1.461567610922747E+00   1.461567564458975E+00
   1.461567516818968E+00   1.461567467972950E+00   1.461567417890391E+00
   1.461567366539987E+00   1.461567313889643E+00   1.461567259906451E+00
   1.461567204556670E+00   1.461567147805705E+00   1.461567089618083E+00
   1.461567029957437E+00   1.461566968786477E+00   1.461566906066969E+00
   1.461566841759711E+00   1.461566775824510E+00   1.461566708220154E+00
   1.461566638904389E+00   1.461566567833889E+00   1.461566494964234E+00
   1.461566420249879E+00   1.461566343644124E+00   1.461566265099088E+00
   1.461566184565679E+00   1.461566101993562E+00   1.461566017331124E+00
   1.461565930525453E+00   1.461565841522289E+00   1.461565750266005E+00
   1.461565656699561E+00   1.461565560764477E+00   1.461565462400791E+00
   1.461565361547022E+00   1.461565258140134E+00   1.461565152115495E+00
   1.461565043406835E+00   1.461564931946210E+00   1.461564817663955E+00
   1.461564700488637E+00   1.461564580347021E+00   1.461564457164014E+00
   1.461564330862623E+00   1.461564201363908E+00   1.461564068586927E+00
   1.461563932448692E+00   1.461563792864112E+00   1.461563649745943E+00
   1.461563503004733E+00   1.461563352548765E+00   1.461563198284000E+00
   1.461563040114018E+00   1.461562877939960E+00   1.461562711660462E+00
   1.461562541171594E+00   1.461562366366798E+00   1.461562187136817E+00
   1.461562003369627E+00   1.461561814950369E+00   1.461561621761276E+00
   1.461561423681601E+00   1.461561220587538E+00   1.461561012352151E+00
   1.461560798845286E+00   1.461560579933496E+00   1.461560355479958E+00
   1.461560125344382E+00   1.461559889382928E+00   1.461559647448116E+00
   1.461559399388731E+00   1.461559145049730E+00   1.461558884272146E+00
   1.461558616892987E+00   1.461558342745137E+00   1.461558061657246E+00
   1.461557773453630E+00   1.461557477954155E+00   1.461557174974129E+00
   1.461556864324183E+00   1.461556545810155E+00   1.461556219232968E+00
   1.461555884388505E+00   1.461555541067482E+00   1.461555189055319E+00
   1.461554828132001E+00   1.461554458071945E+00   1.461554078643858E+00
   1.461553689610590E+00   1.461553290728992E+00   1.461552881749754E+00
   1.461552462417260E+00   1.461552032469420E+00   1.461551591637513E+00
   1.461551139646010E+00   1.461550676212414E+00   1.461550201047070E+00
   1.461549713852997E+00   1.461549214325692E+00   1.461548702152945E+00
   1.461548177014644E+00   1.461547638582571E+00   1.461547086520203E+00
   1.461546520482495E+00   1.461545940115670E+00   1.461545345056995E+00
   1.461544734934554E+00   1.461544109367016E+00   1.461543467963400E+00
   1.461542810322825E+00   1.461542136034264E+00   1.461541444676284E+00
   1.461540735816784E+00   1.461540009012729E+00   1.461539263809863E+00
   1.461538499742436E+00   1.461537716332906E+00   1.461536913091644E+00
   1.461536089516627E+00   1.461535245093123E+00   1.461534379293371E+00
   1.461533491576251E+00   1.461532581386947E+00   1.461531648156597E+00
   1.461530691301939E+00   1.461529710224949E+00   1.461528704312465E+00
   1.461527672935802E+00   1.461526615450363E+00   1.461525531195237E+00
   1.461524419492778E+00   1.461523279648193E+00   1.461522110949096E+00
   1.461520912665076E+00   1.461519684047227E+00   1.461518424327691E+00
   1.461517132719171E+00   1.461515808414444E+00   1.461514450585854E+00
   1.461513058384795E+00   1.461511630941182E+00   1.461510167362905E+00
   1.461508666735274E+00   1.461507128120450E+00   1.461505550556850E+00
   1.461503933058556E+00   1.461502274614696E+00   1.461500574188807E+00
   1.461498830718198E+00   1.461497043113275E+00   1.461495210256869E+00
   1.461493331003532E+00   1.461491404178827E+00   1.461489428578587E+00
   1.461487402968172E+00   1.461485326081690E+00   1.461483196621208E+00
   1.461481013255946E+00   1.461478774621439E+00   1.461476479318688E+00
   1.461474125913288E+00   1.461471712934526E+00   1.461469238874470E+00
   1.461466702187023E+00   1.461464101286954E+00   1.461461434548916E+00
   1.461458700306423E+00   1.461455896850816E+00   1.461453022430190E+00
   1.461450075248302E+00   1.461447053463451E+00   1.461443955187327E+00
   1.461440778483828E+00   1.461437521367857E+00   1.461434181804078E+00
   1.461430757705648E+00   1.461427246932909E+00   1.461423647292059E+00
   1.461419956533777E+00   1.461416172351818E+00   1.461412292381579E+00
   1.461408314198614E+00   1.461404235317128E+00   1.461400053188422E+00
   1.461395765199299E+00   1.461391368670440E+00   1.461386860854720E+00
   1.461382238935507E+00   1.461377500024892E+00   1.461372641161892E+00
   1.461367659310601E+00   1.461362551358294E+00   1.461357314113486E+00
   1.461351944303937E+00   1.461346438574615E+00   1.461340793485595E+00
   1.461335005509919E+00   1.461329071031392E+00   1.461322986342324E+00
   1.461316747641221E+00   1.461310351030406E+00   1.461303792513595E+00
   1.461297067993452E+00   1.461290173268880E+00   1.461283104032402E+00
   1.461275855867923E+00   1.461268424247232E+00   1.461260804528162E+00
   1.461252991950243E+00   1.461244981633414E+00   1.461236768573409E+00
   1.461228347639962E+00   1.461219713573121E+00   1.461210860979142E+00
   1.461201784328569E+00   1.461192477951785E+00   1.461182936035832E+00
   1.461173152620751E+00   1.461163121595683E+00   1.461152836695418E+00
   1.461142291496442E+00   1.461131479412166E+00   1.461120393690248E+00
   1.461109027406814E+00   1.461097373463402E+00   1.461085424581988E+00
   1.461073173300315E+00   1.461060611967731E+00   1.461047732739708E+00
   1.461034527573904E+00   1.461020988224014E+00   1.461007106235865E+00
   1.460992872941188E+00   1.460978279452670E+00   1.460963316658211E+00
   1.460947975215557E+00   1.460932245546077E+00   1.460916117829163E+00
   1.460899581996121E+00   1.460882627723386E+00   1.460865244426678E+00
   1.460847421254192E+00   1.460829147080002E+00   1.460810410496822E+00
   1.460791199809180E+00   1.460771503025932E+00   1.460751307853193E+00
   1.460730601686315E+00   1.460709371602144E+00   1.460687604351076E+00
   1.460665286348758E+00   1.460642403667802E+00   1.460618942028799E+00
   1.460594886791744E+00   1.460570222946728E+00   1.460544935105179E+00
   1.460519007489247E+00   1.460492423923410E+00   1.460465167822968E+00
   1.460437222184774E+00   1.460408569576467E+00   1.460379192125385E+00
   1.460349071507665E+00   1.460318188937102E+00   1.460286525153125E+00
   1.460254060409200E+00   1.460220774460115E+00   1.460186646550007E+00
   1.460151655399408E+00   1.460115779191565E+00   1.460078995559523E+00
   1.460041281572021E+00   1.460002613719374E+00   1.459962967899011E+00
   1.459922319400204E+00   1.459880642889397E+00   1.459837912393972E+00
   1.459794101286648E+00   1.459749182268734E+00   1.459703127353447E+00
   1.459655907848683E+00   1.459607494338961E+00   1.459557856667957E+00
   1.459506963919105E+00   1.459454784397273E+00   1.459401285608631E+00
   1.459346434241180E+00   1.459290196143687E+00   1.459232536305334E+00
   1.459173418833560E+00   1.459112806932348E+00   1.459050662879508E+00
   1.458986948003536E+00   1.458921622659798E+00   1.458854646206337E+00
   1.458785976978649E+00   1.458715572264721E+00   1.458643388278033E+00
   1.458569380131432E+00   1.458493501809369E+00   1.458415706139710E+00
   1.458335944764984E+00   1.458254168112746E+00   1.458170325365357E+00
   1.458084364428932E+00   1.457996231901520E+00   1.457905873040610E+00
   1.457813231729732E+00   1.457718250444225E+00   1.457620870216371E+00
   1.457521030599378E+00   1.457418669630790E+00   1.457313723794677E+00
   1.457206127983269E+00   1.457095815457350E+00   1.456982717805922E+00
   1.456866764904653E+00   1.456747884873593E+00   1.456626004033606E+00
   1.456501046862021E+00   1.456372935946892E+00   1.456241591940466E+00
   1.456106933511304E+00   1.455968877295448E+00   1.455827337846167E+00
   1.455682227582820E+00   1.455533456738183E+00   1.455380933304691E+00
   1.455224562979469E+00   1.455064249107744E+00   1.454899892625335E+00
   1.454731391999454E+00   1.454558643168221E+00   1.454381539478761E+00
   1.454199971623834E+00   1.454013827576974E+00   1.453822992526050E+00
   1.453627348805352E+00   1.453426775826086E+00   1.453221150005109E+00
   1.453010344692216E+00   1.452794230095599E+00   1.452572673205556E+00
   1.452345537716585E+00   1.452112683947502E+00   1.451873968759855E+00
   1.451629245474395E+00   1.451378363785713E+00   1.451121169674790E+00
   1.450857505319733E+00   1.450587209004353E+00   1.450310115024748E+00
   1.450026053593727E+00   1.449734850743178E+00   1.449436328224182E+00
   1.449130303404885E+00   1.448816589166155E+00   1.448494993794935E+00
   1.448165320875203E+00   1.447827369176560E+00   1.447480932540397E+00
   1.447125799763590E+00   1.446761754479643E+00   1.446388575037317E+00
   1.446006034376619E+00   1.445613899902181E+00   1.445211933353923E+00
   1.444799890675024E+00   1.444377521877073E+00   1.443944570902473E+00
   1.443500775483947E+00   1.443045867001145E+00   1.442579570334399E+00
   1.442101603715376E+00   1.441611678574855E+00   1.441109499387369E+00
   1.440594763512801E+00   1.440067161034844E+00   1.439526374596316E+00
   1.438972079231293E+00   1.438403942194016E+00   1.437821622784540E+00
   1.437224772171112E+00   1.436613033209273E+00   1.435986040257572E+00
   1.435343418990001E+00   1.434684786204974E+00   1.434009749631016E+00
   1.433317907728975E+00   1.432608849490857E+00   1.431882154235211E+00
   1.431137391399158E+00   1.430374120326900E+00   1.429591890054875E+00
   1.428790239093498E+00   1.427968695205464E+00   1.427126775180711E+00
   1.426263984608001E+00   1.425379817643188E+00   1.424473756774189E+00
   1.423545272582709E+00   1.422593823502770E+00   1.421618855576081E+00
   1.420619802204366E+00   1.419596083898643E+00   1.418547108025629E+00
   1.417472268551265E+00   1.416370945781573E+00   1.415242506100840E+00
   1.414086301707353E+00   1.412901670346756E+00   1.411687935043218E+00
   1.410444403828543E+00   1.409170369469419E+00   1.407865109192983E+00
   1.406527884410929E+00   1.405157940442362E+00   1.403754506235638E+00
   1.402316794089463E+00   1.400843999373530E+00   1.399335300248982E+00
   1.397789857389009E+00   1.396206813699969E+00   1.394585294043340E+00
   1.392924404958946E+00   1.391223234389830E+00   1.389480851409264E+00
   1.387696305950315E+00   1.385868628538546E+00   1.383996830028291E+00
   1.382079901343167E+00   1.380116813221363E+00   1.378106515966369E+00
   1.376047939203817E+00   1.373939991645153E+00   1.371781560858899E+00
   1.369571513050297E+00   1.367308692850198E+00   1.364991923114061E+00
   1.362620004732038E+00   1.360191716451113E+00   1.357705814710343E+00
   1.355161033490319E+00   1.352556084177983E+00   1.349889655448033E+00
   1.347160413162201E+00   1.344367000287720E+00   1.341508036836429E+00
   1.338582119825973E+00   1.335587823264648E+00   1.332523698161527E+00
   1.329388272563571E+00   1.326180051621482E+00   1.322897517686199E+00
   1.319539130437956E+00   1.316103327049931E+00   1.312588522388636E+00
   1.308993109253242E+00   1.305315458656144E+00   1.301553920147184E+00
   1.297706822184033E+00   1.293772472551317E+00   1.289749158831229E+00
   1.285635148928403E+00   1.281428691651989E+00   1.277128017357968E+00
   1.272731338654802E+00   1.268236851175727E+00   1.263642734420996E+00
   1.258947152673580E+00   1.254148255991910E+00   1.249244181283348E+00
   1.244233053462222E+00   1.239112986696328E+00   1.233882085745970E+00
   1.228538447399656E+00   1.223080162010723E+00   1.217505315139251E+00
   1.211811989303712E+00   1.205998265846933E+00   1.200062226920997E+00
   1.194001957595830E+00   1.187815548096278E+00   1.181501096172548E+00
   1.175056709608951E+00   1.168480508875946E+00   1.161770629930484E+00
   1.154925227169721E+00   1.147942476543144E+00   1.140820578828150E+00
   1.133557763074117E+00   1.126152290219919E+00   1.118602456889788E+00
   1.110906599372352E+00   1.103063097787503E+00   1.095070380445660E+00
   1.086926928403757E+00   1.078631280222107E+00   1.070182036926014E+00
   1.061577867175708E+00   1.052817512647883E+00   1.043899793631652E+00
   1.034823614841361E+00   1.025587971448201E+00   1.016191955331977E+00
   1.006634761553811E+00   9.969156950498674E-01   9.870341775454344E-01
   9.769897546878844E-01   9.667821033961156E-01   9.564110394231115E-01
   9.458765251271535E-01   9.351786774460789E-01   9.243177760676888E-01
   9.132942717880493E-01   9.021087950479618E-01   8.907621646362633E-01
   8.792553965469431E-01   8.675897129752096E-01   8.557665514357075E-01
   8.437875739840041E-01   8.316546765202348E-01   8.193699981514793E-01
   8.069359305869319E-01   7.943551275373225E-01   7.816305140872776E-01
   7.687652960064041E-01   7.557629689618425E-01   7.426273275918616E-01
   7.293624743967334E-01   7.159728283997258E-01   7.024631335274324E-01
   6.888384666550310E-01   6.751042452582484E-01   6.612662346099381E-01
   6.473305544552554E-01   6.333036850953391E-01   6.191924728054435E-01
   6.050041345093425E-01   5.907462616277688E-01   5.764268230147220E-01
   5.620541668914314E-01   5.476370216840711E-01   5.331844956675927E-01
   5.187060753146159E-01   5.042116222452073E-01   4.897113686704286E-01
   4.752159112201754E-01   4.607362030437765E-01   4.462835440703518E-01
   4.318695693151719E-01   4.175062351180073E-01   4.032058032002720E-01
   3.889808224292564E-01   3.748441081803704E-01   3.608087191921156E-01
   3.468879318133855E-01   3.330952115491656E-01   3.194441818185010E-01
   3.059485898481117E-01   2.926222696363759E-01   2.794791019354863E-01
   2.665329712149255E-01   2.537977195867509E-01   2.412870976929166E-01
   2.290147125770737E-01   2.169939725879236E-01   2.052380293886564E-01
   1.937597171770727E-01   1.825714892539153E-01   1.716853521127971E-01
   1.611127972636844E-01   1.508647310435432E-01   1.409514027120301E-01
   1.313823311771977E-01   1.221662307458619E-01   1.133109363451951E-01
   1.048233287162815E-01   9.670926013615576E-02   8.897348128202436E-02
   8.161956990939884E-02   7.464986207403063E-02   6.806538668533695E-02
   6.186580423542303E-02   5.604935060205976E-02   5.061278687500072E-02
   4.555135620156463E-02   4.085874868833760E-02   3.652707542958897E-02
   3.254685275811581E-02   2.890699782905168E-02   2.559483664987076E-02
   2.259612565862219E-02   1.989508792528891E-02   1.747446500612574E-02
   1.531558541584236E-02   1.339845059544980E-02   1.170183914254619E-02
   1.020367794192465E-02   8.882897734949330E-03   7.720397666263548E-03
   6.698899453067926E-03   5.802800253278952E-03   5.018034593599652E-03
   4.331945073589558E-03   3.733161544415046E-03   3.211488446542759E-03
   2.757799979104178E-03   2.363942764881526E-03   2.022645668708596E-03
   1.727436423394918E-03   1.472564715907509E-03   1.252931387315862E-03
   1.064023402748436E-03   9.018542521470384E-04   7.629094487607472E-04
   6.440967999144064E-04   5.427011334426815E-04   4.563431731250467E-04
   3.829422673219828E-04   3.206826866356108E-04   2.679832186436187E-04
   2.234698004370445E-04   1.859509426919490E-04   1.543957121941486E-04
   1.279140529967336E-04   1.057392396142214E-04   8.721226874795619E-05
   7.176800890815271E-05   5.892293987305185E-05   4.826432613948132E-05
   3.944068031626384E-05   3.215338374667298E-05   2.614934248186700E-05
   2.121456703601274E-05   1.716857411569973E-05   1.385951771869075E-05
   1.115996563425802E-05   8.963245449522988E-06   7.180291678952465E-06
   5.736932597735335E-06   4.571561788469689E-06   3.633145322122597E-06
   2.879520909045180E-06   2.275950296611313E-06   1.793890681145155E-06
   1.409954968739415E-06   1.105034388612471E-06   8.635602604106647E-07
   6.728846699235288E-07   5.227624423107575E-07   4.049191438222316E-07
   3.126919170048332E-07   2.407317844259098E-07   1.847576647685277E-07
   1.413537543954562E-07   1.078031566958765E-07   8.195171293916564E-08
   6.209690864268200E-08   4.689753786520041E-08   3.530048914316958E-08
   2.648160427279062E-08   1.979806662023113E-08   1.475020261701255E-08
   1.095094129252467E-08   8.101481854616768E-09   5.971975879904111E-09
   4.386245465978490E-09   3.209737826465371E-09   2.340065612635808E-09
   1.699605368432600E-09   1.229727995928439E-09   8.863183982890355E-10
   6.363095583530161E-10   4.550117497734240E-10   3.240625297974897E-10
   2.298594607821477E-10   1.623666949742016E-10   1.142099278251752E-10
   7.999285866570915E-11   5.578309028490033E-11   3.872709157288916E-11
   2.676304908143747E-11   1.840764274313185E-11   1.259840418971022E-11
   8.577682314905771E-12   5.807615466850064E-12   3.908106055491650E-12
   2.611781658639919E-12   1.731442096596981E-12   1.136641997648831E-12
   7.369233591232000E-13   4.698816393545653E-13   2.926580791457047E-13
   1.765037165158691E-13   9.964269526132890E-14   0.000000000000000E+00
   0.000000000000000E+00   0.000000000000000E+00   0.000000000000000E+00
   0.000000000000000E+00   0.000000000000000E+00   0.000000000000000E+00
   0.000000000000000E+00   0.000000000000000E+00   0.000000000000000E+00
   0.000000000000000E+00   0.000000000000000E+00   0.000000000000000E+00
   0.000000000000000E+00   0.000000000000000E+00   0.000000000000000E+00
   0.000000000000000E+00   0.000000000000000E+00   0.000000000000000E+00
   0.000000000000000E+00   0.000000000000000E+00   0.000000000000000E+00
   0.000000000000000E+00   0.000000000000000E+00   0.000000000000000E+00
   0.000000000000000E+00   0.000000000000000E+00   0.000000000000000E+00
   0.000000000000000E+00   0.000000000000000E+00   0.000000000000000E+00
   0.000000000000000E+00   0.000000000000000E+00   0.000000000000000E+00
   0.000000000000000E+00   0.000000000000000E+00   0.000000000000000E+00
   0.000000000000000E+00   0.000000000000000E+00   0.000000000000000E+00
   0.000000000000000E+00   0.000000000000000E+00   0.000000000000000E+00
   0.000000000000000E+00   0.000000000000000E+00   0.000000000000000E+00
   0.000000000000000E+00   0.000000000000000E+00   0.000000000000000E+00
   0.000000000000000E+00   0.000000000000000E+00   0.000000000000000E+00
   0.000000000000000E+00   0.000000000000000E+00   0.000000000000000E+00
   0.000000000000000E+00   0.000000000000000E+00   0.000000000000000E+00
   0.000000000000000E+00   0.000000000000000E+00   0.000000000000000E+00
   0.000000000000000E+00   0.000000000000000E+00   0.000000000000000E+00
   0.000000000000000E+00   0.000000000000000E+00   0.000000000000000E+00
   0.000000000000000E+00   0.000000000000000E+00   0.000000000000000E+00
   0.000000000000000E+00   0.000000000000000E+00   0.000000000000000E+00
   0.000000000000000E+00   0.000000000000000E+00   0.000000000000000E+00
   0.000000000000000E+00   0.000000000000000E+00   0.000000000000000E+00
   0.000000000000000E+00   0.000000000000000E+00   0.000000000000000E+00
   0.000000000000000E+00   0.000000000000000E+00   0.000000000000000E+00
   0.000000000000000E+00   0.000000000000000E+00   0.000000000000000E+00
   0.000000000000000E+00   0.000000000000000E+00   0.000000000000000E+00
   0.000000000000000E+00   0.000000000000000E+00   0.000000000000000E+00
   0.000000000000000E+00   0.000000000000000E+00   0.000000000000000E+00
   0.000000000000000E+00   0.000000000000000E+00   0.000000000000000E+00
   0.000000000000000E+00   0.000000000000000E+00   0.000000000000000E+00
   0.000000000000000E+00   0.000000000000000E+00   0.000000000000000E+00
   0.000000000000000E+00   0.000000000000000E+00   0.000000000000000E+00
   0.000000000000000E+00   0.000000000000000E+00   0.000000000000000E+00
   0.000000000000000E+00   0.000000000000000E+00   0.000000000000000E+00
   0.000000000000000E+00   0.000000000000000E+00   0.000000000000000E+00
   0.000000000000000E+00   0.000000000000000E+00   0.000000000000000E+00
   0.000000000000000E+00   0.000000000000000E+00   0.000000000000000E+00
   0.000000000000000E+00   0.000000000000000E+00   0.000000000000000E+00
   0.000000000000000E+00   0.000000000000000E+00   0.000000000000000E+00
   0.000000000000000E+00   0.000000000000000E+00   0.000000000000000E+00
   0.000000000000000E+00   0.000000000000000E+00   0.000000000000000E+00
   0.000000000000000E+00   0.000000000000000E+00   0.000000000000000E+00
   0.000000000000000E+00   0.000000000000000E+00   0.000000000000000E+00
   0.000000000000000E+00   0.000000000000000E+00   0.000000000000000E+00
   0.000000000000000E+00   0.000000000000000E+00   0.000000000000000E+00
   0.000000000000000E+00   0.000000000000000E+00   0.000000000000000E+00
   0.000000000000000E+00   0.000000000000000E+00   0.000000000000000E+00
   0.000000000000000E+00   0.000000000000000E+00   0.000000000000000E+00
   0.000000000000000E+00   0.000000000000000E+00   0.000000000000000E+00
   0.000000000000000E+00   0.000000000000000E+00   0.000000000000000E+00
   0.000000000000000E+00   0.000000000000000E+00   0.000000000000000E+00
   0.000000000000000E+00   0.000000000000000E+00   0.000000000000000E+00
   0.000000000000000E+00   0.000000000000000E+00   0.000000000000000E+00
   0.000000000000000E+00   0.000000000000000E+00   0.000000000000000E+00
   0.000000000000000E+00   0.000000000000000E+00   0.000000000000000E+00
   0.000000000000000E+00   0.000000000000000E+00   0.000000000000000E+00
   0.000000000000000E+00   0.000000000000000E+00   0.000000000000000E+00
   0.000000000000000E+00   0.000000000000000E+00   0.000000000000000E+00
   0.000000000000000E+00   0.000000000000000E+00   0.000000000000000E+00
   0.000000000000000E+00   0.000000000000000E+00   0.000000000000000E+00
   0.000000000000000E+00   0.000000000000000E+00   0.000000000000000E+00
   0.000000000000000E+00   0.000000000000000E+00   0.000000000000000E+00
   0.000000000000000E+00   0.000000000000000E+00   0.000000000000000E+00
   0.000000000000000E+00   0.000000000000000E+00   0.000000000000000E+00
   0.000000000000000E+00   0.000000000000000E+00   0.000000000000000E+00
   0.000000000000000E+00   0.000000000000000E+00   0.000000000000000E+00
   0.000000000000000E+00   0.000000000000000E+00   0.000000000000000E+00
   0.000000000000000E+00   0.000000000000000E+00   0.000000000000000E+00
   0.000000000000000E+00   0.000000000000000E+00   0.000000000000000E+00
   0.000000000000000E+00   0.000000000000000E+00   0.000000000000000E+00
   0.000000000000000E+00   0.000000000000000E+00   0.000000000000000E+00
   0.000000000000000E+00   0.000000000000000E+00   0.000000000000000E+00
   0.000000000000000E+00   0.000000000000000E+00   0.000000000000000E+00
   0.000000000000000E+00   0.000000000000000E+00   0.000000000000000E+00
   0.000000000000000E+00   0.000000000000000E+00   0.000000000000000E+00
   0.000000000000000E+00   0.000000000000000E+00   0.000000000000000E+00
   0.000000000000000E+00   0.000000000000000E+00   0.000000000000000E+00
   0.000000000000000E+00   0.000000000000000E+00   0.000000000000000E+00
   0.000000000000000E+00   0.000000000000000E+00   0.000000000000000E+00
   0.000000000000000E+00   0.000000000000000E+00   0.000000000000000E+00
   0.000000000000000E+00   0.000000000000000E+00   0.000000000000000E+00
   0.000000000000000E+00   0.000000000000000E+00   0.000000000000000E+00
   0.000000000000000E+00   0.000000000000000E+00   0.000000000000000E+00
   0.000000000000000E+00   0.000000000000000E+00   0.000000000000000E+00
   0.000000000000000E+00   0.000000000000000E+00   0.000000000000000E+00
   0.000000000000000E+00   0.000000000000000E+00   0.000000000000000E+00
   0.000000000000000E+00   0.000000000000000E+00   0.000000000000000E+00
   0.000000000000000E+00   0.000000000000000E+00   0.000000000000000E+00
   0.000000000000000E+00   0.000000000000000E+00   0.000000000000000E+00
   0.000000000000000E+00   0.000000000000000E+00   0.000000000000000E+00
   0.000000000000000E+00   0.000000000000000E+00   0.000000000000000E+00
   0.000000000000000E+00   0.000000000000000E+00   0.000000000000000E+00
   0.000000000000000E+00   0.000000000000000E+00   0.000000000000000E+00
   0.000000000000000E+00   0.000000000000000E+00   0.000000000000000E+00
   0.000000000000000E+00   0.000000000000000E+00   0.000000000000000E+00
   0.000000000000000E+00   0.000000000000000E+00   0.000000000000000E+00
   0.000000000000000E+00   0.000000000000000E+00   0.000000000000000E+00
   0.000000000000000E+00   0.000000000000000E+00   0.000000000000000E+00
   0.000000000000000E+00   0.000000000000000E+00   0.000000000000000E+00
   0.000000000000000E+00   0.000000000000000E+00   0.000000000000000E+00
   0.000000000000000E+00   0.000000000000000E+00   0.000000000000000E+00
   0.000000000000000E+00   0.000000000000000E+00   0.000000000000000E+00
   0.000000000000000E+00   0.000000000000000E+00   0.000000000000000E+00
   0.000000000000000E+00   0.000000000000000E+00   0.000000000000000E+00
   0.000000000000000E+00
  </PP_NLCC>
  <PP_LOCAL size="1129">
  -4.797371618822866E+01  -4.797371618450448E+01  -4.797371618068603E+01
  -4.797371617677091E+01  -4.797371617275670E+01  -4.797371616864087E+01
  -4.797371616442085E+01  -4.797371616009400E+01  -4.797371615565764E+01
  -4.797371615110896E+01  -4.797371614644514E+01  -4.797371614166326E+01
  -4.797371613676033E+01  -4.797371613173330E+01  -4.797371612657899E+01
  -4.797371612129420E+01  -4.797371611587562E+01  -4.797371611031985E+01
  -4.797371610462346E+01  -4.797371609878286E+01  -4.797371609279439E+01
  -4.797371608665432E+01  -4.797371608035881E+01  -4.797371607390394E+01
  -4.797371606728565E+01  -4.797371606049981E+01  -4.797371605354220E+01
  -4.797371604640844E+01  -4.797371603909411E+01  -4.797371603159460E+01
  -4.797371602390523E+01  -4.797371601602120E+01  -4.797371600793758E+01
  -4.797371599964935E+01  -4.797371599115127E+01  -4.797371598243807E+01
  -4.797371597350428E+01  -4.797371596434434E+01  -4.797371595495252E+01
  -4.797371594532294E+01  -4.797371593544956E+01  -4.797371592532625E+01
  -4.797371591494667E+01  -4.797371590430433E+01  -4.797371589339257E+01
  -4.797371588220456E+01  -4.797371587073334E+01  -4.797371585897172E+01
  -4.797371584691236E+01  -4.797371583454769E+01  -4.797371582187002E+01
  -4.797371580887140E+01  -4.797371579554373E+01  -4.797371578187867E+01
  -4.797371576786767E+01  -4.797371575350196E+01  -4.797371573877260E+01
  -4.797371572367035E+01  -4.797371570818581E+01  -4.797371569230924E+01
  -4.797371567603076E+01  -4.797371565934019E+01  -4.797371564222709E+01
  -4.797371562468079E+01  -4.797371560669026E+01  -4.797371558824432E+01
  -4.797371556933142E+01  -4.797371554993973E+01  -4.797371553005713E+01
  -4.797371550967121E+01  -4.797371548876920E+01  -4.797371546733806E+01
  -4.797371544536438E+01  -4.797371542283445E+01  -4.797371539973415E+01
  -4.797371537604906E+01  -4.797371535176438E+01  -4.797371532686494E+01
  -4.797371530133517E+01  -4.797371527515909E+01  -4.797371524832036E+01
  -4.797371522080221E+01  -4.797371519258742E+01  -4.797371516365838E+01
  -4.797371513399699E+01  -4.797371510358472E+01  -4.797371507240255E+01
  -4.797371504043100E+01  -4.797371500765009E+01  -4.797371497403932E+01
  -4.797371493957769E+01  -4.797371490424365E+01  -4.797371486801514E+01
  -4.797371483086948E+01  -4.797371479278348E+01  -4.797371475373331E+01
  -4.797371471369460E+01  -4.797371467264229E+01  -4.797371463055075E+01
  -4.797371458739364E+01  -4.797371454314400E+01  -4.797371449777417E+01
  -4.797371445125579E+01  -4.797371440355982E+01  -4.797371435465639E+01
  -4.797371430451497E+01  -4.797371425310421E+01  -4.797371420039196E+01
  -4.797371414634532E+01  -4.797371409093046E+01  -4.797371403411276E+01
  -4.797371397585673E+01  -4.797371391612592E+01  -4.797371385488303E+01
  -4.797371379208975E+01  -4.797371372770685E+01  -4.797371366169409E+01
  -4.797371359401021E+01  -4.797371352461290E+01  -4.797371345345879E+01
  -4.797371338050339E+01  -4.797371330570111E+01  -4.797371322900520E+01
  -4.797371315036773E+01  -4.797371306973954E+01  -4.797371298707021E+01
  -4.797371290230812E+01  -4.797371281540024E+01  -4.797371272629231E+01
  -4.797371263492855E+01  -4.797371254125193E+01  -4.797371244520386E+01
  -4.797371234672431E+01  -4.797371224575176E+01  -4.797371214222307E+01
  -4.797371203607351E+01  -4.797371192723678E+01  -4.797371181564480E+01
  -4.797371170122788E+01  -4.797371158391446E+01  -4.797371146363124E+01
  -4.797371134030301E+01  -4.797371121385272E+01  -4.797371108420133E+01
  -4.797371095126778E+01  -4.797371081496900E+01  -4.797371067521978E+01
  -4.797371053193278E+01  -4.797371038501846E+01  -4.797371023438497E+01
  -4.797371007993817E+01  -4.797370992158152E+01  -4.797370975921605E+01
  -4.797370959274028E+01  -4.797370942205013E+01  -4.797370924703892E+01
  -4.797370906759728E+01  -4.797370888361303E+01  -4.797370869497121E+01
  -4.797370850155387E+01  -4.797370830324013E+01  -4.797370809990605E+01
  -4.797370789142452E+01  -4.797370767766526E+01  -4.797370745849462E+01
  -4.797370723377566E+01  -4.797370700336787E+01  -4.797370676712728E+01
  -4.797370652490621E+01  -4.797370627655323E+01  -4.797370602191319E+01
  -4.797370576082687E+01  -4.797370549313111E+01  -4.797370521865857E+01
  -4.797370493723769E+01  -4.797370464869260E+01  -4.797370435284292E+01
  -4.797370404950374E+01  -4.797370373848548E+01  -4.797370341959370E+01
  -4.797370309262914E+01  -4.797370275738737E+01  -4.797370241365890E+01
  -4.797370206122886E+01  -4.797370169987697E+01  -4.797370132937738E+01
  -4.797370094949851E+01  -4.797370056000291E+01  -4.797370016064716E+01
  -4.797369975118158E+01  -4.797369933135032E+01  -4.797369890089091E+01
  -4.797369845953432E+01  -4.797369800700469E+01  -4.797369754301913E+01
  -4.797369706728769E+01  -4.797369657951297E+01  -4.797369607939009E+01
  -4.797369556660650E+01  -4.797369504084162E+01  -4.797369450176689E+01
  -4.797369394904532E+01  -4.797369338233145E+01  -4.797369280127107E+01
  -4.797369220550095E+01  -4.797369159464877E+01  -4.797369096833266E+01
  -4.797369032616118E+01  -4.797368966773294E+01  -4.797368899263637E+01
  -4.797368830044954E+01  -4.797368759073976E+01  -4.797368686306346E+01
  -4.797368611696581E+01  -4.797368535198041E+01  -4.797368456762918E+01
  -4.797368376342181E+01  -4.797368293885566E+01  -4.797368209341533E+01
  -4.797368122657236E+01  -4.797368033778497E+01  -4.797367942649757E+01
  -4.797367849214059E+01  -4.797367753413002E+01  -4.797367655186702E+01
  -4.797367554473765E+01  -4.797367451211238E+01  -4.797367345334578E+01
  -4.797367236777608E+01  -4.797367125472468E+01  -4.797367011349593E+01
  -4.797366894337646E+01  -4.797366774363488E+01  -4.797366651352130E+01
  -4.797366525226681E+01  -4.797366395908307E+01  -4.797366263316177E+01
  -4.797366127367410E+01  -4.797365987977034E+01  -4.797365845057915E+01
  -4.797365698520727E+01  -4.797365548273869E+01  -4.797365394223432E+01
  -4.797365236273123E+01  -4.797365074324213E+01  -4.797364908275473E+01
  -4.797364738023110E+01  -4.797364563460708E+01  -4.797364384479151E+01
  -4.797364200966565E+01  -4.797364012808242E+01  -4.797363819886567E+01
  -4.797363622080952E+01  -4.797363419267755E+01  -4.797363211320202E+01
  -4.797362998108309E+01  -4.797362779498803E+01  -4.797362555355038E+01
  -4.797362325536905E+01  -4.797362089900749E+01  -4.797361848299282E+01
  -4.797361600581477E+01  -4.797361346592496E+01  -4.797361086173571E+01
  -4.797360819161919E+01  -4.797360545390635E+01  -4.797360264688588E+01
  -4.797359976880311E+01  -4.797359681785903E+01  -4.797359379220899E+01
  -4.797359068996168E+01  -4.797358750917790E+01  -4.797358424786935E+01
  -4.797358090399742E+01  -4.797357747547180E+01  -4.797357396014936E+01
  -4.797357035583263E+01  -4.797356666026853E+01  -4.797356287114697E+01
  -4.797355898609931E+01  -4.797355500269694E+01  -4.797355091844982E+01
  -4.797354673080480E+01  -4.797354243714413E+01  -4.797353803478374E+01
  -4.797353352097164E+01  -4.797352889288610E+01  -4.797352414763401E+01
  -4.797351928224899E+01  -4.797351429368949E+01  -4.797350917883705E+01
  -4.797350393449414E+01  -4.797349855738234E+01  -4.797349304414019E+01
  -4.797348739132114E+01  -4.797348159539130E+01  -4.797347565272737E+01
  -4.797346955961429E+01  -4.797346331224290E+01  -4.797345690670758E+01
  -4.797345033900385E+01  -4.797344360502581E+01  -4.797343670056358E+01
  -4.797342962130068E+01  -4.797342236281132E+01  -4.797341492055765E+01
  -4.797340728988687E+01  -4.797339946602843E+01  -4.797339144409088E+01
  -4.797338321905893E+01  -4.797337478579034E+01  -4.797336613901260E+01
  -4.797335727331965E+01  -4.797334818316858E+01  -4.797333886287602E+01
  -4.797332930661478E+01  -4.797331950840999E+01  -4.797330946213553E+01
  -4.797329916151015E+01  -4.797328860009338E+01  -4.797327777128180E+01
  -4.797326666830464E+01  -4.797325528421968E+01  -4.797324361190888E+01
  -4.797323164407393E+01  -4.797321937323160E+01  -4.797320679170917E+01
  -4.797319389163954E+01  -4.797318066495646E+01  -4.797316710338920E+01
  -4.797315319845763E+01  -4.797313894146683E+01  -4.797312432350155E+01
  -4.797310933542079E+01  -4.797309396785194E+01  -4.797307821118497E+01
  -4.797306205556644E+01  -4.797304549089328E+01  -4.797302850680644E+01
  -4.797301109268451E+01  -4.797299323763690E+01  -4.797297493049720E+01
  -4.797295615981603E+01  -4.797293691385400E+01  -4.797291718057424E+01
  -4.797289694763489E+01  -4.797287620238144E+01  -4.797285493183870E+01
  -4.797283312270272E+01  -4.797281076133245E+01  -4.797278783374115E+01
  -4.797276432558770E+01  -4.797274022216753E+01  -4.797271550840347E+01
  -4.797269016883622E+01  -4.797266418761473E+01  -4.797263754848618E+01
  -4.797261023478592E+01  -4.797258222942683E+01  -4.797255351488883E+01
  -4.797252407320762E+01  -4.797249388596370E+01  -4.797246293427057E+01
  -4.797243119876301E+01  -4.797239865958489E+01  -4.797236529637674E+01
  -4.797233108826289E+01  -4.797229601383847E+01  -4.797226005115591E+01
  -4.797222317771121E+01  -4.797218537042968E+01  -4.797214660565161E+01
  -4.797210685911731E+01  -4.797206610595194E+01  -4.797202432064982E+01
  -4.797198147705838E+01  -4.797193754836184E+01  -4.797189250706427E+01
  -4.797184632497233E+01  -4.797179897317753E+01  -4.797175042203804E+01
  -4.797170064116014E+01  -4.797164959937898E+01  -4.797159726473905E+01
  -4.797154360447405E+01  -4.797148858498635E+01  -4.797143217182566E+01
  -4.797137432966753E+01  -4.797131502229104E+01  -4.797125421255595E+01
  -4.797119186237942E+01  -4.797112793271185E+01  -4.797106238351249E+01
  -4.797099517372399E+01  -4.797092626124672E+01  -4.797085560291205E+01
  -4.797078315445522E+01  -4.797070887048746E+01  -4.797063270446728E+01
  -4.797055460867111E+01  -4.797047453416322E+01  -4.797039243076479E+01
  -4.797030824702226E+01  -4.797022193017474E+01  -4.797013342612081E+01
  -4.797004267938425E+01  -4.796994963307891E+01  -4.796985422887290E+01
  -4.796975640695152E+01  -4.796965610597954E+01  -4.796955326306238E+01
  -4.796944781370613E+01  -4.796933969177692E+01  -4.796922882945889E+01
  -4.796911515721129E+01  -4.796899860372433E+01  -4.796887909587396E+01
  -4.796875655867554E+01  -4.796863091523620E+01  -4.796850208670605E+01
  -4.796836999222815E+01  -4.796823454888694E+01  -4.796809567165580E+01
  -4.796795327334282E+01  -4.796780726453537E+01  -4.796765755354318E+01
  -4.796750404634000E+01  -4.796734664650364E+01  -4.796718525515460E+01
  -4.796701977089293E+01  -4.796685008973365E+01  -4.796667610504024E+01
  -4.796649770745667E+01  -4.796631478483746E+01  -4.796612722217607E+01
  -4.796593490153118E+01  -4.796573770195138E+01  -4.796553549939755E+01
  -4.796532816666358E+01  -4.796511557329464E+01  -4.796489758550355E+01
  -4.796467406608489E+01  -4.796444487432689E+01  -4.796420986592094E+01
  -4.796396889286875E+01  -4.796372180338717E+01  -4.796346844181025E+01
  -4.796320864848911E+01  -4.796294225968876E+01  -4.796266910748243E+01
  -4.796238901964317E+01  -4.796210181953231E+01  -4.796180732598528E+01
  -4.796150535319421E+01  -4.796119571058740E+01  -4.796087820270580E+01
  -4.796055262907589E+01  -4.796021878407956E+01  -4.795987645682010E+01
  -4.795952543098496E+01  -4.795916548470480E+01  -4.795879639040842E+01
  -4.795841791467434E+01  -4.795802981807802E+01  -4.795763185503510E+01
  -4.795722377364046E+01  -4.795680531550292E+01  -4.795637621557539E+01
  -4.795593620198067E+01  -4.795548499583232E+01  -4.795502231105080E+01
  -4.795454785417449E+01  -4.795406132416587E+01  -4.795356241221207E+01
  -4.795305080152029E+01  -4.795252616710742E+01  -4.795198817558412E+01
  -4.795143648493274E+01  -4.795087074427946E+01  -4.795029059365993E+01
  -4.794969566377854E+01  -4.794908557576108E+01  -4.794845994090061E+01
  -4.794781836039622E+01  -4.794716042508458E+01  -4.794648571516412E+01
  -4.794579379991136E+01  -4.794508423738959E+01  -4.794435657414918E+01
  -4.794361034491968E+01  -4.794284507229318E+01  -4.794206026639880E+01
  -4.794125542456808E+01  -4.794043003099090E+01  -4.793958355636160E+01
  -4.793871545751523E+01  -4.793782517705330E+01  -4.793691214295896E+01
  -4.793597576820136E+01  -4.793501545032830E+01  -4.793403057104766E+01
  -4.793302049579648E+01  -4.793198457329783E+01  -4.793092213510474E+01
  -4.792983249513108E+01  -4.792871494916869E+01  -4.792756877439055E+01
  -4.792639322883946E+01  -4.792518755090170E+01  -4.792395095876547E+01
  -4.792268264986301E+01  -4.792138180029673E+01  -4.792004756424813E+01
  -4.791867907336921E+01  -4.791727543615590E+01  -4.791583573730275E+01
  -4.791435903703827E+01  -4.791284437044055E+01  -4.791129074673219E+01
  -4.790969714855389E+01  -4.790806253121628E+01  -4.790638582192884E+01
  -4.790466591900568E+01  -4.790290169104682E+01  -4.790109197609451E+01
  -4.789923558076377E+01  -4.789733127934603E+01  -4.789537781288520E+01
  -4.789337388822511E+01  -4.789131817702736E+01  -4.788920931475863E+01
  -4.788704589964620E+01  -4.788482649160095E+01  -4.788254961110637E+01
  -4.788021373807255E+01  -4.787781731065391E+01  -4.787535872402948E+01
  -4.787283632914432E+01  -4.787024843141072E+01  -4.786759328936790E+01
  -4.786486911329858E+01  -4.786207406380097E+01  -4.785920625031470E+01
  -4.785626372959884E+01  -4.785324450416052E+01  -4.785014652063227E+01
  -4.784696766809628E+01  -4.784370577635366E+01  -4.784035861413679E+01
  -4.783692388726270E+01  -4.783339923672516E+01  -4.782978223672368E+01
  -4.782607039262669E+01  -4.782226113886692E+01  -4.781835183676618E+01
  -4.781433977228716E+01  -4.781022215370957E+01  -4.780599610922808E+01
  -4.780165868446853E+01  -4.779720683992045E+01  -4.779263744828175E+01
  -4.778794729171338E+01  -4.778313305899992E+01  -4.777819134261300E+01
  -4.777311863567397E+01  -4.776791132881210E+01  -4.776256570691453E+01
  -4.775707794576383E+01  -4.775144410855950E+01  -4.774566014231858E+01
  -4.773972187415148E+01  -4.773362500740813E+01  -4.772736511768995E+01
  -4.772093764872264E+01  -4.771433790808479E+01  -4.770756106278695E+01
  -4.770060213469597E+01  -4.769345599579894E+01  -4.768611736330073E+01
  -4.767858079454955E+01  -4.767084068178404E+01  -4.766289124669557E+01
  -4.765472653479949E+01  -4.764634040960804E+01  -4.763772654659832E+01
  -4.762887842696794E+01  -4.761978933117101E+01  -4.761045233222674E+01
  -4.760086028879294E+01  -4.759100583799595E+01  -4.758088138800944E+01
  -4.757047911037250E+01  -4.755979093203936E+01  -4.754880852715089E+01
  -4.753752330851920E+01  -4.752592641881569E+01  -4.751400872145296E+01
  -4.750176079115093E+01  -4.748917290417678E+01  -4.747623502824881E+01
  -4.746293681209370E+01  -4.744926757464644E+01  -4.743521629388257E+01
  -4.742077159527142E+01  -4.740592173983964E+01  -4.739065461183383E+01
  -4.737495770597100E+01  -4.735881811426587E+01  -4.734222251242339E+01
  -4.732515714578552E+01  -4.730760781482095E+01  -4.728955986014645E+01
  -4.727099814706931E+01  -4.725190704963940E+01  -4.723227043420080E+01
  -4.721207164243235E+01  -4.719129347386728E+01  -4.716991816788244E+01
  -4.714792738514788E+01  -4.712530218852865E+01  -4.710202302343061E+01
  -4.707806969758370E+01  -4.705342136025641E+01  -4.702805648089609E+01
  -4.700195282719154E+01  -4.697508744255498E+01  -4.694743662302199E+01
  -4.691897589357011E+01  -4.688967998385782E+01  -4.685952280338798E+01
  -4.682847741610198E+01  -4.679651601441298E+01  -4.676360989268949E+01
  -4.672972942020291E+01  -4.669484401355636E+01  -4.665892210861495E+01
  -4.662193113196155E+01  -4.658383747190634E+01  -4.654460644908204E+01
  -4.650420228666231E+01  -4.646258808024513E+01  -4.641972576744864E+01
  -4.637557609727331E+01  -4.633009859928948E+01  -4.628325155271743E+01
  -4.623499195547372E+01  -4.618527549326474E+01  -4.613405650881858E+01
  -4.608128797135299E+01  -4.602692144638850E+01  -4.597090706602489E+01
  -4.591319349980999E+01  -4.585372792634197E+01  -4.579245600575700E+01
  -4.572932185326826E+01  -4.566426801393494E+01  -4.559723543885403E+01
  -4.552816346298334E+01  -4.545698978481880E+01  -4.538365044816643E+01
  -4.530807982626624E+01  -4.523021060854234E+01  -4.514997379027419E+01
  -4.506729866550066E+01  -4.498211282349078E+01  -4.489434214913469E+01
  -4.480391082762899E+01  -4.471074135385435E+01  -4.461475454686306E+01
  -4.451586956991920E+01  -4.441400395655536E+01  -4.430907364313371E+01
  -4.420099300842281E+01  -4.408967492072372E+01  -4.397503079310263E+01
  -4.385697064730975E+01  -4.373540318698497E+01  -4.361023588077349E+01
  -4.348137505599237E+01  -4.334872600350917E+01  -4.321219309450950E+01
  -4.307167990984439E+01  -4.292708938266226E+01  -4.277832395503734E+01
  -4.262528574931385E+01  -4.246787675488699E+01  -4.230599903113904E+01
  -4.213955492724325E+01  -4.196844731953439E+01  -4.179257986712793E+01
  -4.161185728644428E+01  -4.142618564526222E+01  -4.123547267688682E+01
  -4.103962811496711E+01  -4.083856404944267E+01  -4.063219530402951E+01
  -4.042043983557737E+01  -4.020321915554234E+01  -3.998045877371512E+01
  -3.975208866423350E+01  -3.951804375377939E+01  -3.927826443171979E+01
  -3.903269708179869E+01  -3.878129463481555E+01  -3.852401714154526E+01
  -3.826083229163576E+01  -3.799171550327314E+01  -3.771665025528647E+01
  -3.743562875366920E+01  -3.714865261850101E+01  -3.685573358689400E+01
  -3.655689423043584E+01  -3.625216868539797E+01  -3.594160339375891E+01
  -3.562525785286986E+01  -3.530320537135120E+01  -3.497553382856053E+01
  -3.464234643471165E+01  -3.430376248844017E+01  -3.395991812831189E+01
  -3.361096707443585E+01  -3.325708135597523E+01  -3.289845201993418E+01
  -3.253528981611796E+01  -3.216782585261225E+01  -3.179631221547614E+01
  -3.142102254557704E+01  -3.104225256459194E+01  -3.066032054112600E+01
  -3.027556768664080E+01  -2.988835846940715E+01  -2.949908083298401E+01
  -2.910814536538762E+01  -2.871598156518375E+01  -2.832303871998918E+01
  -2.792978586451837E+01  -2.753671079873433E+01  -2.714431888201000E+01
  -2.675313158369010E+01  -2.636368476936663E+01  -2.597652670114123E+01
  -2.559221572921588E+01  -2.521131765142579E+01  -2.483440271693498E+01
  -2.446204225045651E+01  -2.409480487429204E+01  -2.373325230756798E+01
  -2.337793472575829E+01  -2.302938566954715E+01  -2.268811650112774E+01
  -2.235461041920976E+01  -2.202931606267460E+01  -2.171263193161048E+01
  -2.140486808645109E+01  -2.110625593749106E+01  -2.081694620932787E+01
  -2.053699907261468E+01  -2.026637444542478E+01  -2.000492281243218E+01
  -1.975237701260741E+01  -1.950834556880266E+01  -1.927230827813140E+01
  -1.904361495295358E+01  -1.882148840446631E+01  -1.860503298334447E+01
  -1.839317178521577E+01  -1.818488982991521E+01  -1.797909098032068E+01
  -1.777466516113375E+01  -1.757057752038417E+01  -1.736595636621496E+01
  -1.716020622645853E+01  -1.695315111073745E+01  -1.674521394264461E+01
  -1.653763917672901E+01  -1.633220532303275E+01  -1.612932340976347E+01
  -1.592896173620257E+01  -1.573108899542423E+01  -1.553567426940357E+01
  -1.534268702418502E+01  -1.515209710511134E+01  -1.496387473211162E+01
  -1.477799049504786E+01  -1.459441534911965E+01  -1.441312061032564E+01
  -1.423407795098174E+01  -1.405725939529492E+01  -1.388263731499198E+01
  -1.371018442500289E+01  -1.353987377919753E+01  -1.337167876617571E+01
  -1.320557310510943E+01  -1.304153084163676E+01  -1.287952634380700E+01
  -1.271953429807590E+01  -1.256152970535084E+01  -1.240548787708523E+01
  -1.225138443142094E+01  -1.209919528937919E+01  -1.194889667109805E+01
  -1.180046509211708E+01  -1.165387735970775E+01  -1.150911056924934E+01
  -1.136614210064989E+01  -1.122494961481133E+01  -1.108551105013858E+01
  -1.094780461909185E+01  -1.081180880478186E+01  -1.067750235761366E+01
  -1.054486429195650E+01  -1.041387388284235E+01  -1.028451066276469E+01
  -1.015675441846839E+01  -1.003058518779008E+01  -9.905983256539120E+00
  -9.782929155417065E+00  -9.661403656975629E+00  -9.541387772612179E+00
  -9.422862749602945E+00  -9.305810068172818E+00  -9.190211438601761E+00
  -9.076048798367175E+00  -8.963304309321590E+00  -8.851960354905689E+00
  -8.741999537395721E+00  -8.633404675185206E+00  -8.526158800100472E+00
  -8.420245154749335E+00  -8.315647189902920E+00  -8.212348561909824E+00
  -8.110333130142488E+00  -8.009584954475324E+00  -7.910088292793961E+00
  -7.811827598535718E+00  -7.714787518260329E+00  -7.618952889251045E+00
  -7.524308737145486E+00  -7.430840273595800E+00  -7.338532893958104E+00
  -7.247372175010376E+00  -7.157343872698890E+00  -7.068433919912573E+00
  -6.980628424284951E+00  -6.893913666023509E+00  -6.808276095765921E+00
  -6.723702332462916E+00  -6.640179161287578E+00  -6.557693531570372E+00
  -6.476232554760070E+00  -6.395783502409815E+00  -6.316333804188315E+00
  -6.237871045915727E+00  -6.160382967623862E+00  -6.083857461640614E+00
  -6.008282570698043E+00  -5.933646486064056E+00  -5.859937545697317E+00
  -5.787144232424924E+00  -5.715255172142943E+00  -5.644259132039077E+00
  -5.574145018837564E+00  -5.504901877065842E+00  -5.436518887342666E+00
  -5.368985364687628E+00  -5.302290756851539E+00  -5.236424642667619E+00
  -5.171376730423218E+00  -5.107136856251609E+00  -5.043694982543941E+00
  -4.981041196380777E+00  -4.919165707982845E+00  -4.858058849182378E+00
  -4.797711071911378E+00  -4.738112946710094E+00  -4.679255161253583E+00
  -4.621128518896642E+00  -4.563723937236827E+00  -4.507032446695229E+00
  -4.451045189115021E+00  -4.395753416377263E+00  -4.341148489034015E+00
  -4.287221874958394E+00  -4.233965148011367E+00  -4.181369986725167E+00
  -4.129428173002997E+00  -4.078131590834929E+00  -4.027472225029781E+00
  -3.977442159962648E+00  -3.928033578338123E+00  -3.879238759968756E+00
  -3.831050080568774E+00  -3.783460010562778E+00  -3.736461113909169E+00
  -3.690046046938296E+00  -3.644207557204925E+00  -3.598938482355060E+00
  -3.554231749006814E+00  -3.510080371645113E+00  -3.466477451530255E+00
  -3.423416175619908E+00  -3.380889815504575E+00  -3.338891726356280E+00
  -3.297415345890255E+00  -3.256454193339615E+00  -3.216001868442676E+00
  -3.176052050442920E+00  -3.136598497101390E+00  -3.097635043721266E+00
  -3.059155602184688E+00  -3.021154160001420E+00  -2.983624779369412E+00
  -2.946561596247024E+00  -2.909958819436723E+00  -2.873810729680241E+00
  -2.838111678764892E+00  -2.802856088641058E+00  -2.768038450550614E+00
  -2.733653324166152E+00  -2.699695336740960E+00  -2.666159182269490E+00
  -2.633039620658302E+00  -2.600331476907315E+00  -2.568029640301167E+00
  -2.536129063610709E+00  -2.504624762304327E+00  -2.473511813769132E+00
  -2.442785356541801E+00  -2.412440589548947E+00  -2.382472771356977E+00
  -2.352877219431217E+00  -2.323649309404269E+00  -2.294784474353476E+00
  -2.266278204087292E+00  -2.238126044440619E+00  -2.210323596578789E+00
  -2.182866516310278E+00  -2.155750513407928E+00  -2.128971350938564E+00
  -2.102524844601021E+00  -2.076406862072305E+00  -2.050613322361933E+00
  -2.025140195174291E+00  -1.999983500278875E+00  -1.975139306888405E+00
  -1.950603733044613E+00  -1.926372945011706E+00  -1.902443156677344E+00
  -1.878810628961041E+00  -1.855471669229962E+00  -1.832422630721917E+00
  -1.809659911975571E+00  -1.787179956267718E+00  -1.764979251057521E+00
  -1.743054327437702E+00  -1.721401759592495E+00  -1.700018164262376E+00
  -1.678900200215428E+00  -1.658044567725250E+00  -1.637448008055397E+00
  -1.617107302950171E+00  -1.597019274131777E+00  -1.577180782803719E+00
  -1.557588729160332E+00  -1.538240051902457E+00  -1.519131727759086E+00
  -1.500260771014973E+00  -1.481624233044121E+00  -1.463219201849023E+00
  -1.445042801605682E+00  -1.427092192214231E+00  -1.409364568855161E+00
  -1.391857161551076E+00  -1.374567234733838E+00  -1.357492086817157E+00
  -1.340629049774447E+00  -1.323975488721714E+00  -1.307528801507445E+00
  -1.291286418300043E+00  -1.275245787347609E+00  -1.259404431217404E+00
  -1.243759859483412E+00  -1.228309627652237E+00  -1.213051314858451E+00
  -1.197982579054404E+00  -1.183100999913333E+00  -1.168404282752495E+00
  -1.153890131177797E+00  -1.139556277321437E+00  -1.125400481487568E+00
  -1.111420531802327E+00  -1.097614243868233E+00  -1.083979460422875E+00
  -1.070514047398387E+00  -1.057215908327460E+00  -1.044082961393136E+00
  -1.031113154545733E+00  -1.018304461226148E+00  -1.005654880050825E+00
  -9.931624344965329E-01  -9.808251725932354E-01  -9.686411666186580E-01
  -9.566085127970827E-01  -9.447253310018655E-01  -9.329897644616774E-01
  -9.213999794703690E-01  -9.099541651004539E-01  -8.986505329201538E-01
  -8.874873167139392E-01  -8.764627722065693E-01  -8.655751767905345E-01
  -8.548228292568985E-01  -8.442040495294855E-01  -8.337171784023563E-01
  -8.233605772805649E-01  -8.131326279241137E-01  -8.030317321951052E-01
  -7.930563118080346E-01  -7.832048080831681E-01  -7.734756817030084E-01
  -7.638674124717637E-01  -7.543784990778163E-01  -7.450074588591461E-01
  -7.357528275716508E-01  -7.266131591603657E-01  -7.175870255335055E-01
  -7.086730163393256E-01  -6.998697387457566E-01  -6.911758172227612E-01
  -6.825898933274165E-01  -6.741106254916438E-01  -6.657366888125917E-01
  -6.574667748456197E-01  -6.492995913998423E-01  -6.412338623362331E-01
  -6.332683273682139E-01  -6.254017418647397E-01  -6.176328766558222E-01
  -6.099605178404652E-01  -6.023834665969962E-01  -5.949005389957420E-01
  -5.875105658140388E-01  -5.802123923535448E-01  -5.730048782598063E-01
  -5.658868973440844E-01  -5.588573374073783E-01  -5.519151000666452E-01
  -5.450591005831785E-01  -5.382882676931086E-01  -5.316015434400223E-01
  -5.249978830096502E-01  -5.184762545666141E-01  -5.120356390932032E-01
  -5.056750302301440E-01  -4.993934341193632E-01  -4.931898692486871E-01
  -4.870633662984831E-01  -4.810129679902023E-01  -4.750377289367974E-01
  -4.691367154950116E-01  -4.633090056194877E-01  -4.575536887187008E-01
  -4.518698655126771E-01  -4.462566478924754E-01  -4.407131587814238E-01
  -4.352385319980696E-01  -4.298319121208391E-01  -4.244924543543781E-01
  -4.192193243975458E-01  -4.140116983130598E-01  -4.088687623987483E-01
  -4.037897130604109E-01  -3.987737566862567E-01  -3.938201095228951E-01
  -3.889279975528808E-01  -3.840966563737641E-01  -3.793253310786558E-01
  -3.746132761382727E-01  -3.699597552844420E-01  -3.653640413950642E-01
  -3.608254163804933E-01  -3.563431710713363E-01  -3.519166051076455E-01
  -3.475450268294821E-01  -3.432277531688473E-01  -3.389641095429475E-01
  -3.347534297487907E-01  -3.305950558590943E-01  -3.264883381194759E-01
  -3.224326348469350E-01  -3.184273123295832E-01  -3.144717447276278E-01
  -3.105653139755843E-01  -3.067074096856990E-01  -3.028974290525787E-01
  -2.991347767589976E-01  -2.954188648828788E-01  -2.917491128054329E-01
  -2.881249471204305E-01  -2.845458015446110E-01  -2.810111168291957E-01
  -2.775203406725059E-01  -2.740729276336664E-01  -2.706683390473748E-01
  -2.673060429397388E-01  -2.639855139451506E-01  -2.607062332241983E-01
  -2.574676883825990E-01  -2.542693733911309E-01  -2.511107885065709E-01
  -2.479914401936037E-01  -2.449108410477088E-01  -2.418685097190031E-01
  -2.388639708370258E-01  -2.358967549364649E-01  -2.329663983837984E-01
  -2.300724433048527E-01  -2.272144375132598E-01  -2.243919344397994E-01
  -2.216044930626245E-01  -2.188516778383485E-01  -2.161330586339915E-01
  -2.134482106597727E-01  -2.107967144027327E-01  -2.081781555611879E-01
  -2.055921249799912E-01  -2.030382185866027E-01  -2.005160373279532E-01
  -1.980251871080888E-01
  </PP_LOCAL>
  <PP_NONLOCAL>
    <PP_BETA.1 index="1" label="2S" angular_momentum="0" cutoff_radius_index="797" cutoff_radius="0.69999999999999996" ultrasoft_cutoff_radius="1.3999999999999999">
   2.002683514404313E-04   2.027874179761767E-04   2.053381704981528E-04
   2.079210075681435E-04   2.104678377489603E-04   2.128520039760788E-04
   2.158957461802850E-04   2.187907131918101E-04   2.215060541108133E-04
   2.242675931963258E-04   2.265589389077914E-04   2.298696397483316E-04
   2.328866627058087E-04   2.357329788823987E-04   2.384226276076887E-04
   2.416727124834657E-04   2.446807138886053E-04   2.477260661411973E-04
   2.509340781447583E-04   2.539971817656798E-04   2.573183565966441E-04
   2.606728757646424E-04   2.636177796384441E-04   2.672094737355065E-04
   2.702608787325309E-04   2.737185175299345E-04   2.772888804181891E-04
   2.805699924816916E-04   2.842435289292436E-04   2.878373399767244E-04
   2.915307209139837E-04   2.949169838553726E-04   2.988695565292763E-04
   3.023264332633628E-04   3.064693123118500E-04   3.101106817927888E-04
   3.141508097316839E-04   3.180109649322473E-04   3.222336421618934E-04
   3.260552698321586E-04   3.302339749173969E-04   3.341874893213225E-04
   3.387508095067109E-04   3.427023262169340E-04   3.471997217548073E-04
   3.515466944710160E-04   3.560511780278982E-04   3.603253975963028E-04
   3.650390692895500E-04   3.696135473198476E-04   3.741883773704744E-04
   3.788772273399636E-04   3.834683684461684E-04   3.883383379362250E-04
   3.933955201153457E-04   3.983544351192901E-04   4.032108273921088E-04
   4.082264416460232E-04   4.134494218173456E-04   4.187381776624968E-04
   4.240621573092776E-04   4.292842815923341E-04   4.347514244764168E-04
   4.401063165227145E-04   4.457230215073925E-04   4.513107069496801E-04
   4.570590452556897E-04   4.627744106671776E-04   4.685971694940603E-04
   4.745296856987701E-04   4.804450797214748E-04   4.863745273555179E-04
   4.926031246057581E-04   4.987185184716621E-04   5.049997968874917E-04
   5.114273285014485E-04   5.176953236340092E-04   5.243865737102672E-04
   5.308197103247941E-04   5.376822100869451E-04   5.443372051470770E-04
   5.513240965067498E-04   5.581314940493855E-04   5.653220583672046E-04
   5.722523451848576E-04   5.795898339797274E-04   5.866829912331202E-04
   5.942128519256307E-04   6.016837600862004E-04   6.093172774869046E-04
   6.169337661327294E-04   6.246992585491806E-04   6.325055162973749E-04
   6.403801253644721E-04   6.485098709136717E-04   6.565393355450005E-04
   6.649133478263260E-04   6.732938733531751E-04   6.817614767385795E-04
   6.903137647066727E-04   6.990836002145492E-04   7.077031463264731E-04
   7.167111781122898E-04   7.257214862028032E-04   7.348261062796184E-04
   7.440215551543024E-04   7.535262093024942E-04   7.629093455252135E-04
   7.725567819525134E-04   7.822812726169712E-04   7.921231717659431E-04
   8.020548966712836E-04   8.120989862442913E-04   8.223690655812027E-04
   8.326371463629402E-04   8.431711445209236E-04   8.537153560623945E-04
   8.645045978650859E-04   8.754084333071829E-04   8.863266995143169E-04
   8.975655338946524E-04   9.088437560647450E-04   9.202524525309332E-04
   9.318670395773504E-04   9.435575424266282E-04   9.554980004902237E-04
   9.674123990361066E-04   9.796183826903263E-04   9.919445613288808E-04
   1.004364162211347E-03   1.017071670668863E-03   1.029837649644459E-03
   1.042790664645963E-03   1.055926368891158E-03   1.069215546780313E-03
   1.082627929679831E-03   1.096268079875334E-03   1.110061491245852E-03
   1.124006727815532E-03   1.138110085529786E-03   1.152540428873593E-03
   1.166920217865151E-03   1.181668985580586E-03   1.196441231642146E-03
   1.211552969129235E-03   1.226797125571993E-03   1.242170877314213E-03
   1.257849928498566E-03   1.273684788448841E-03   1.289655404233251E-03
   1.305934861409062E-03   1.322335803284274E-03   1.339005181793552E-03
   1.355780931526994E-03   1.372853718588704E-03   1.390191981691573E-03
   1.407587527954779E-03   1.425356569438097E-03   1.443219387544356E-03
   1.461378802134788E-03   1.479810901450033E-03   1.498386656268570E-03
   1.517272907833702E-03   1.536309580876193E-03   1.555643299546379E-03
   1.575270077382880E-03   1.595054744272794E-03   1.615081714706173E-03
   1.635417764908445E-03   1.656002640657427E-03   1.676823643810285E-03
   1.697892415424862E-03   1.719271904881751E-03   1.740871714950621E-03
   1.762815905367652E-03   1.784936515133066E-03   1.807407957426275E-03
   1.830131592497537E-03   1.853183848217505E-03   1.876452628194698E-03
   1.900112949862871E-03   1.924007766728087E-03   1.948158172311592E-03
   1.972682686040833E-03   1.997491064254367E-03   2.022619016959758E-03
   2.048102189513490E-03   2.073821897555439E-03   2.099917613021398E-03
   2.126298671978497E-03   2.153105909873138E-03   2.180167868374911E-03
   2.207583198028561E-03   2.235351497240811E-03   2.263450053869191E-03
   2.291934891623589E-03   2.320759413179673E-03   2.349993011839915E-03
   2.379514384773320E-03   2.409447212359947E-03   2.439783204669332E-03
   2.470439890076358E-03   2.501522941599254E-03   2.532949453382841E-03
   2.564859638604295E-03   2.597102380140730E-03   2.629781295660017E-03
   2.662868186098569E-03   2.696341160041990E-03   2.730282936259402E-03
   2.764601074048122E-03   2.799372190667353E-03   2.834586978894198E-03
   2.870251362469588E-03   2.906366400454602E-03   2.942883898575305E-03
   2.979938591723337E-03   3.017426916858058E-03   3.055361027904392E-03
   3.093805679805859E-03   3.132712933755959E-03   3.172119248436508E-03
   3.212010191079815E-03   3.252422090415071E-03   3.293320663174009E-03
   3.334749703160715E-03   3.376680937870280E-03   3.419171807135564E-03
   3.462171645477286E-03   3.505719198965689E-03   3.549799113118916E-03
   3.594454077214751E-03   3.639676718120453E-03   3.685459794792246E-03
   3.731834313402863E-03   3.778744229544618E-03   3.826283910417479E-03
   3.874407032279419E-03   3.923145572608904E-03   3.972495838523653E-03
   4.022439732150615E-03   4.073067322820565E-03   4.124265276374849E-03
   4.176155106104786E-03   4.228685474485400E-03   4.281876486088949E-03
   4.335732293418200E-03   4.390267386880980E-03   4.445493171377395E-03
   4.501402409569682E-03   4.558022673020844E-03   4.615353356581140E-03
   4.673415171114708E-03   4.732187380273974E-03   4.791703420357736E-03
   4.851975706268014E-03   4.913023303518036E-03   4.974810709566905E-03
   5.037373598314049E-03   5.100730002595324E-03   5.164898052277253E-03
   5.229847851676503E-03   5.295637997320548E-03   5.362244170107958E-03
   5.429700178448349E-03   5.497986489960950E-03   5.567156453403315E-03
   5.637166194538027E-03   5.708077216015402E-03   5.779865843884093E-03
   5.852577110976295E-03   5.926174200928652E-03   6.000728074980179E-03
   6.076192731755848E-03   6.152627988332569E-03   6.230004416108069E-03
   6.308368042775795E-03   6.387716099112168E-03   6.468058793923460E-03
   6.549408883156055E-03   6.631790665788877E-03   6.715206875838847E-03
   6.799657422957937E-03   6.885183460708627E-03   6.971788398273913E-03
   7.059477634227422E-03   7.148267635687260E-03   7.238179760602852E-03
   7.329214123068032E-03   7.421398414917176E-03   7.514742015677991E-03
   7.609244461762178E-03   7.704972809019554E-03   7.801869124239452E-03
   7.900000550822774E-03   7.999356403053375E-03   8.099973913745978E-03
   8.201845453225127E-03   8.305011029595483E-03   8.409463050674047E-03
   8.515229283705093E-03   8.622322913054727E-03   8.730769582722727E-03
   8.840586162016665E-03   8.951766619075870E-03   9.064350218121901E-03
   9.178358544093428E-03   9.293800790370958E-03   9.410684673720693E-03
   9.529046188668892E-03   9.648886230228935E-03   9.770242181774899E-03
   9.893122256297383E-03   1.001753738438211E-02   1.014354058057585E-02
   1.027110555504237E-02   1.040028591313828E-02   1.053108776129155E-02
   1.066352477877567E-02   1.079764081644294E-02   1.093343859071571E-02
   1.107093667094129E-02   1.121017903514072E-02   1.135115429671689E-02
   1.149391724071739E-02   1.163846289443258E-02   1.178483149661315E-02
   1.193303626492487E-02   1.208311068111831E-02   1.223507190236725E-02
   1.238893425398931E-02   1.254474321380435E-02   1.270250249988499E-02
   1.286224398975083E-02   1.302399974763790E-02   1.318777664916938E-02
   1.335362515992742E-02   1.352154848606874E-02   1.369158825435209E-02
   1.386376567138708E-02   1.403810950049132E-02   1.421463932375812E-02
   1.439338884704573E-02   1.457438635917285E-02   1.475765602081413E-02
   1.494323854224424E-02   1.513114803801282E-02   1.532140727575716E-02
   1.551407554179682E-02   1.570915069875788E-02   1.590668307588262E-02
   1.610670420575278E-02   1.630922880138091E-02   1.651430570253266E-02
   1.672195498783351E-02   1.693221020826283E-02   1.714511551575731E-02
   1.736068917330578E-02   1.757897335216291E-02   1.779999694888999E-02
   1.802380130104565E-02   1.825041809384716E-02   1.847988123448192E-02
   1.871222299875530E-02   1.894748381990715E-02   1.918570167180312E-02
   1.942691562336611E-02   1.967115201432487E-02   1.991845955046165E-02
   2.016886979783492E-02   2.042242947649199E-02   2.067917055267615E-02
   2.093913447668853E-02   2.120236856286507E-02   2.146890447614853E-02
   2.173878687726001E-02   2.201205406629661E-02   2.228875536499307E-02
   2.256893009310373E-02   2.285262330852961E-02   2.313987619774474E-02
   2.343073528949149E-02   2.372524443706392E-02   2.402344996703201E-02
   2.432540056518495E-02   2.463113739911871E-02   2.494071231087011E-02
   2.525416917712364E-02   2.557156266154997E-02   2.589293743982639E-02
   2.621834254830767E-02   2.654783156970210E-02   2.688145207237833E-02
   2.721926113641318E-02   2.756129988743913E-02   2.790763420174565E-02
   2.825831046934107E-02   2.861338283546642E-02   2.897290664436734E-02
   2.933693759619717E-02   2.970553890033557E-02   3.007874850932604E-02
   3.045664745700911E-02   3.083927598803735E-02   3.122670284741978E-02
   3.161898142636184E-02   3.201617604590970E-02   3.241834730972319E-02
   3.282555877561363E-02   3.323786688585963E-02   3.365534281877934E-02
   3.407804162083598E-02   3.450603895613930E-02   3.493939141688190E-02
   3.537817047227762E-02   3.582243950953980E-02   3.627226833262162E-02
   3.672773143636451E-02   3.718888896828304E-02   3.765581763157709E-02
   3.812858639757975E-02   3.860726812458264E-02   3.909193688579563E-02
   3.958266508048672E-02   4.007952933998277E-02   4.058260198276215E-02
   4.109196369748674E-02   4.160768782361707E-02   4.212985685676340E-02
   4.265854891710052E-02   4.319384512759827E-02   4.373582302593526E-02
   4.428456774529888E-02   4.484016449449521E-02   4.540269315508569E-02
   4.597224111268217E-02   4.654889284873093E-02   4.713273744995972E-02
   4.772386363041398E-02   4.832235734750259E-02   4.892831256283908E-02
   4.954181786116543E-02   5.016296660706540E-02   5.079184847407583E-02
   5.142856501465395E-02   5.207320631075210E-02   5.272587239912649E-02
   5.338665686289065E-02   5.405566119421734E-02   5.473298496889414E-02
   5.541872858407873E-02   5.611299586726143E-02   5.681588481618691E-02
   5.752750863771403E-02   5.824796581690059E-02   5.897736374169579E-02
   5.971581619034896E-02   6.046342419195680E-02   6.122030305802165E-02
   6.198656390510621E-02   6.276231667951779E-02   6.354767887183776E-02
   6.434276421756502E-02   6.514768704375573E-02   6.596256881569837E-02
   6.678752596674753E-02   6.762267880983083E-02   6.846815068517076E-02
   6.932406038044187E-02   7.019053554921367E-02   7.106770101736562E-02
   7.195568099083677E-02   7.285460370877428E-02   7.376460133310578E-02
   7.468580056832447E-02   7.561833585698177E-02   7.656233853960367E-02
   7.751794316530158E-02   7.848528621060918E-02   7.946450510451586E-02
   8.045573611966816E-02   8.145911976136622E-02   8.247479820044412E-02
   8.350291264408544E-02   8.454360589541293E-02   8.559702497714167E-02
   8.666331485537399E-02   8.774262257906318E-02   8.883509771168452E-02
   8.994089276083184E-02   9.106015489093927E-02   9.219303923167566E-02
   9.333970055688573E-02   9.450029438994878E-02   9.567497592941493E-02
   9.686390449317217E-02   9.806723796768330E-02   9.928513999814120E-02
   1.005177691843610E-01   1.017652896812873E-01   1.030278657052570E-01
   1.043056650070396E-01   1.055988506269580E-01   1.069075929335261E-01
   1.082320602549701E-01   1.095724235672303E-01   1.109288525356574E-01
   1.123015218495690E-01   1.136906032667990E-01   1.150962726121662E-01
   1.165187044831787E-01   1.179580761596862E-01   1.194145658410257E-01
   1.208883490528075E-01   1.223796098604848E-01   1.238885257406178E-01
   1.254152775642062E-01   1.269600485030285E-01   1.285230206936672E-01
   1.301043777319271E-01   1.317043028745942E-01   1.333229820063713E-01
   1.349605991996175E-01   1.366173404218560E-01   1.382933921042134E-01
   1.399889410531983E-01   1.417041739199605E-01   1.434392757035799E-01
   1.451944368506382E-01   1.469698430741250E-01   1.487656815811578E-01
   1.505821404831227E-01   1.524194073777090E-01   1.542776679296720E-01
   1.561571093969150E-01   1.580579183323477E-01   1.599802813756821E-01
   1.619243815799325E-01   1.638904064743016E-01   1.658785371729972E-01
   1.678889581560712E-01   1.699218510069497E-01   1.719773962851251E-01
   1.740557735366052E-01   1.761571598246370E-01   1.782817326270651E-01
   1.804296670235142E-01   1.826011357980141E-01   1.847963086147000E-01
   1.870153561077538E-01   1.892584438308580E-01   1.915257367301622E-01
   1.938173951437815E-01   1.961335787790126E-01   1.984744427297189E-01
   2.008401395920208E-01   2.032308187323970E-01   2.056466253021091E-01
   2.080877012821412E-01   2.105541840932074E-01   2.130462076938318E-01
   2.155639008871914E-01   2.181073877042227E-01   2.206767882767047E-01
   2.232722161341171E-01   2.258937807566465E-01   2.285415846294029E-01
   2.312157252436563E-01   2.339162937617535E-01   2.366433740871399E-01
   2.393970445002833E-01   2.421773743984922E-01   2.449844277321610E-01
   2.478182590389839E-01   2.506789166806394E-01   2.535664387666958E-01
   2.564808551585950E-01   2.594221879735006E-01   2.623904483136150E-01
   2.653856377555281E-01   2.684077486922306E-01   2.714567621356143E-01
   2.745326482941821E-01   2.776353662702198E-01   2.807648638627517E-01
   2.839210759249154E-01   2.871039250396852E-01   2.903133217826027E-01
   2.935491616787207E-01   2.968113280125846E-01   3.000996889533833E-01
   3.034140974985409E-01   3.067543930051884E-01   3.101203976922444E-01
   3.135119180271668E-01   3.169287438214179E-01   3.203706476620978E-01
   3.238373846552809E-01   3.273286911716320E-01   3.308442852837954E-01
   3.343838647742527E-01   3.379471086170283E-01   3.415336741525126E-01
   3.451431983469060E-01   3.487752954090442E-01   3.524295581348638E-01
   3.561055547894252E-01   3.598028306450149E-01   3.635209062703191E-01
   3.672592761744344E-01   3.710174086910998E-01   3.747947454545635E-01
   3.785906996333905E-01   3.824046549923250E-01   3.862359665443924E-01
   3.900839564951679E-01   3.939479158052814E-01   3.978271022169659E-01
   4.017207371542610E-01   4.056280076517456E-01   4.095480617059264E-01
   4.134800082994801E-01   4.174229154143285E-01   4.213758083827788E-01
   4.253376664370083E-01   4.293074222716999E-01   4.332839586365729E-01
   4.372661059349905E-01   4.412526396767322E-01   4.452422760534636E-01
   4.492336704335380E-01   4.532254123454225E-01   4.572160216611294E-01
   4.612039442991769E-01   4.651875476194265E-01   4.691651147004854E-01
   4.731348387172856E-01   4.770948165108337E-01   4.810430423551890E-01
   4.849773992414304E-01   4.888956521488288E-01   4.927954378236863E-01
   4.966742556737802E-01   5.005294570674472E-01   5.043582335777592E-01
   5.081576048896301E-01   5.119244041435931E-01   5.156552644880708E-01
   5.193466012363017E-01   5.229945958755704E-01   5.265951760480339E-01
   5.301439955799507E-01   5.336364118585148E-01   5.370674620076294E-01
   5.404318366299146E-01   5.437238527146273E-01   5.469374222783596E-01
   5.500660205452648E-01   5.531026514514914E-01   5.560398100269199E-01
   5.588694414243975E-01   5.615829000952779E-01   5.641709020503245E-01
   5.666234772245624E-01   5.689299169830648E-01   5.710787192017084E-01
   5.730575290484858E-01   5.748530780216088E-01   5.764511165584181E-01
   5.778363463134970E-01   5.789923465848865E-01   5.799014973725583E-01
   5.805449003923564E-01   5.809022936059360E-01   5.809519654538651E-01
   5.806706638176036E-01   5.800335013434914E-01   5.790138604771928E-01
   5.775832926902633E-01   5.757114178573861E-01   5.733658214590744E-01
   5.705119488843957E-01   5.671130024168822E-01   5.631298352666043E-01
   5.585208490696805E-01   5.532418925912701E-01   5.472461633699002E-01
   5.404841153815356E-01   5.329033714515710E-01   5.244486439379923E-01
   5.150616659560749E-01   5.046811317969935E-01   4.932426542359059E-01
   4.806787356750992E-01   4.669187591966075E-01   4.518890014827535E-01
   4.355126701508136E-01   4.177099694021451E-01   3.983981971811512E-01
   3.774918779535952E-01   3.549029346295853E-01   3.305409036717122E-01
   3.043131985505294E-01   2.761254243851736E-01   2.458817500475408E-01
   2.134853413101681E-01   1.788388591119112E-01   1.418450294604017E-01
   1.024072872111939E-01   6.043049899725794E-02   1.582177051035805E-02
  -3.150866157696219E-02  -8.164644516627195E-02  -1.346720383515629E-01
  -1.906595384681697E-01  -2.496754172410953E-01  -3.117771603674098E-01
  -3.770118121374713E-01  -4.454144303988352E-01  -5.170064527466314E-01
  -5.917939815569027E-01  -6.697659968680023E-01  -7.508925035798203E-01
  -8.351226292866443E-01  -9.223826845168152E-01  -1.012574204132396E+00
  -1.105571990914724E+00  -1.201222182603620E+00  -1.299340371879097E+00
  -1.399709806373357E+00  -1.502079703523694E+00  -1.606163717076545E+00
  -1.711638593276334E+00  -1.818143062695635E+00  -1.925277011731853E+00
  -2.032600984373580E+00  -2.139636066482456E+00  -2.245864205460520E+00
  -2.350729023511472E+00  -2.453637179537190E+00  -2.553960338952186E+00
  -2.651037807859959E+00  -2.744179887124886E+00  -2.832671999298117E+00
  -2.915779636836128E+00  -2.992754173273274E+00  -3.062839572867092E+00
  -3.125280021096541E+00  -3.179328488561035E+00  -3.224256222088757E+00
  -3.259363140024037E+00  -3.283989084506625E+00  -3.297525856907710E+00
  -3.299429931897904E+00  -3.289235708801868E+00  -3.266569118166527E+00
  -3.231161354969267E+00  -3.182862457087273E+00  -3.121654390333824E+00
  -3.047663236594169E+00  -2.961170011755757E+00  -2.862619563415870E+00
  -2.752626915170022E+00  -2.631980333494592E+00  -2.501640294964894E+00
  -2.362733421954027E+00  -2.216540332986066E+00  -2.064476214540752E+00
  -1.908062756753332E+00  -1.748889899163649E+00  -1.588565590444715E+00
  -1.428651463455425E+00  -1.270581944847254E+00  -1.115563835166424E+00
  -9.644527888669183E-01  -8.179019187777288E-01  -6.773694073432692E-01
  -5.446134706987362E-01  -4.214423020349703E-01  -3.096983864344245E-01
  -2.112405222896657E-01  -1.279235660919242E-01  -6.157518464222105E-02
  -1.397633409812780E-02   1.321966954143450E-02   1.799610301882422E-02
   3.062128375521011E-03  -3.440932412182296E-04  -6.699441585367065E-06
  -4.032188955085154E-05  -3.702858039975920E-05  -3.727248113021459E-05
  -3.705172039996784E-05  -3.677160292828766E-05  -3.640030833975941E-05
  -3.594910919777459E-05  -3.542475373867583E-05  -3.483421100893045E-05
  -3.418412681115212E-05  -3.348092696474131E-05  -3.273075001793925E-05
  -3.193946329090390E-05  -3.111266472416898E-05  -3.025565538615085E-05
  -2.937345125469108E-05  -2.847077900867697E-05  -2.755207503249374E-05
  -2.662151009530514E-05  -2.568295637636872E-05  -2.474003640777099E-05
  -2.379610476027375E-05  -2.285426180684224E-05  -2.191737989788250E-05
  -2.098808198426162E-05  -2.006878865828286E-05  -1.916169526716059E-05
   0.000000000000000E+00   0.000000000000000E+00   0.000000000000000E+00
   0.000000000000000E+00   0.000000000000000E+00   0.000000000000000E+00
   0.000000000000000E+00   0.000000000000000E+00   0.000000000000000E+00
   0.000000000000000E+00   0.000000000000000E+00   0.000000000000000E+00
   0.000000000000000E+00   0.000000000000000E+00   0.000000000000000E+00
   0.000000000000000E+00   0.000000000000000E+00   0.000000000000000E+00
   0.000000000000000E+00   0.000000000000000E+00   0.000000000000000E+00
   0.000000000000000E+00   0.000000000000000E+00   0.000000000000000E+00
   0.000000000000000E+00   0.000000000000000E+00   0.000000000000000E+00
   0.000000000000000E+00   0.000000000000000E+00   0.000000000000000E+00
   0.000000000000000E+00   0.000000000000000E+00   0.000000000000000E+00
   0.000000000000000E+00   0.000000000000000E+00   0.000000000000000E+00
   0.000000000000000E+00   0.000000000000000E+00   0.000000000000000E+00
   0.000000000000000E+00   0.000000000000000E+00   0.000000000000000E+00
   0.000000000000000E+00   0.000000000000000E+00   0.000000000000000E+00
   0.000000000000000E+00   0.000000000000000E+00   0.000000000000000E+00
   0.000000000000000E+00   0.000000000000000E+00   0.000000000000000E+00
   0.000000000000000E+00   0.000000000000000E+00   0.000000000000000E+00
   0.000000000000000E+00   0.000000000000000E+00   0.000000000000000E+00
   0.000000000000000E+00   0.000000000000000E+00   0.000000000000000E+00
   0.000000000000000E+00   0.000000000000000E+00   0.000000000000000E+00
   0.000000000000000E+00   0.000000000000000E+00   0.000000000000000E+00
   0.000000000000000E+00   0.000000000000000E+00   0.000000000000000E+00
   0.000000000000000E+00   0.000000000000000E+00   0.000000000000000E+00
   0.000000000000000E+00   0.000000000000000E+00   0.000000000000000E+00
   0.000000000000000E+00   0.000000000000000E+00   0.000000000000000E+00
   0.000000000000000E+00   0.000000000000000E+00   0.000000000000000E+00
   0.000000000000000E+00   0.000000000000000E+00   0.000000000000000E+00
   0.000000000000000E+00   0.000000000000000E+00   0.000000000000000E+00
   0.000000000000000E+00   0.000000000000000E+00   0.000000000000000E+00
   0.000000000000000E+00   0.000000000000000E+00   0.000000000000000E+00
   0.000000000000000E+00   0.000000000000000E+00   0.000000000000000E+00
   0.000000000000000E+00   0.000000000000000E+00   0.000000000000000E+00
   0.000000000000000E+00   0.000000000000000E+00   0.000000000000000E+00
   0.000000000000000E+00   0.000000000000000E+00   0.000000000000000E+00
   0.000000000000000E+00   0.000000000000000E+00   0.000000000000000E+00
   0.000000000000000E+00   0.000000000000000E+00   0.000000000000000E+00
   0.000000000000000E+00   0.000000000000000E+00   0.000000000000000E+00
   0.000000000000000E+00   0.000000000000000E+00   0.000000000000000E+00
   0.000000000000000E+00   0.000000000000000E+00   0.000000000000000E+00
   0.000000000000000E+00   0.000000000000000E+00   0.000000000000000E+00
   0.000000000000000E+00   0.000000000000000E+00   0.000000000000000E+00
   0.000000000000000E+00   0.000000000000000E+00   0.000000000000000E+00
   0.000000000000000E+00   0.000000000000000E+00   0.000000000000000E+00
   0.000000000000000E+00   0.000000000000000E+00   0.000000000000000E+00
   0.000000000000000E+00   0.000000000000000E+00   0.000000000000000E+00
   0.000000000000000E+00   0.000000000000000E+00   0.000000000000000E+00
   0.000000000000000E+00   0.000000000000000E+00   0.000000000000000E+00
   0.000000000000000E+00   0.000000000000000E+00   0.000000000000000E+00
   0.000000000000000E+00   0.000000000000000E+00   0.000000000000000E+00
   0.000000000000000E+00   0.000000000000000E+00   0.000000000000000E+00
   0.000000000000000E+00   0.000000000000000E+00   0.000000000000000E+00
   0.000000000000000E+00   0.000000000000000E+00   0.000000000000000E+00
   0.000000000000000E+00   0.000000000000000E+00   0.000000000000000E+00
   0.000000000000000E+00   0.000000000000000E+00   0.000000000000000E+00
   0.000000000000000E+00   0.000000000000000E+00   0.000000000000000E+00
   0.000000000000000E+00   0.000000000000000E+00   0.000000000000000E+00
   0.000000000000000E+00   0.000000000000000E+00   0.000000000000000E+00
   0.000000000000000E+00   0.000000000000000E+00   0.000000000000000E+00
   0.000000000000000E+00   0.000000000000000E+00   0.000000000000000E+00
   0.000000000000000E+00   0.000000000000000E+00   0.000000000000000E+00
   0.000000000000000E+00   0.000000000000000E+00   0.000000000000000E+00
   0.000000000000000E+00   0.000000000000000E+00   0.000000000000000E+00
   0.000000000000000E+00   0.000000000000000E+00   0.000000000000000E+00
   0.000000000000000E+00   0.000000000000000E+00   0.000000000000000E+00
   0.000000000000000E+00   0.000000000000000E+00   0.000000000000000E+00
   0.000000000000000E+00   0.000000000000000E+00   0.000000000000000E+00
   0.000000000000000E+00   0.000000000000000E+00   0.000000000000000E+00
   0.000000000000000E+00   0.000000000000000E+00   0.000000000000000E+00
   0.000000000000000E+00   0.000000000000000E+00   0.000000000000000E+00
   0.000000000000000E+00   0.000000000000000E+00   0.000000000000000E+00
   0.000000000000000E+00   0.000000000000000E+00   0.000000000000000E+00
   0.000000000000000E+00   0.000000000000000E+00   0.000000000000000E+00
   0.000000000000000E+00   0.000000000000000E+00   0.000000000000000E+00
   0.000000000000000E+00   0.000000000000000E+00   0.000000000000000E+00
   0.000000000000000E+00   0.000000000000000E+00   0.000000000000000E+00
   0.000000000000000E+00   0.000000000000000E+00   0.000000000000000E+00
   0.000000000000000E+00   0.000000000000000E+00   0.000000000000000E+00
   0.000000000000000E+00   0.000000000000000E+00   0.000000000000000E+00
   0.000000000000000E+00   0.000000000000000E+00   0.000000000000000E+00
   0.000000000000000E+00   0.000000000000000E+00   0.000000000000000E+00
   0.000000000000000E+00   0.000000000000000E+00   0.000000000000000E+00
   0.000000000000000E+00   0.000000000000000E+00   0.000000000000000E+00
   0.000000000000000E+00   0.000000000000000E+00   0.000000000000000E+00
   0.000000000000000E+00   0.000000000000000E+00   0.000000000000000E+00
   0.000000000000000E+00   0.000000000000000E+00   0.000000000000000E+00
   0.000000000000000E+00   0.000000000000000E+00   0.000000000000000E+00
   0.000000000000000E+00   0.000000000000000E+00   0.000000000000000E+00
   0.000000000000000E+00   0.000000000000000E+00   0.000000000000000E+00
   0.000000000000000E+00   0.000000000000000E+00   0.000000000000000E+00
   0.000000000000000E+00   0.000000000000000E+00   0.000000000000000E+00
   0.000000000000000E+00   0.000000000000000E+00   0.000000000000000E+00
   0.000000000000000E+00   0.000000000000000E+00   0.000000000000000E+00
   0.000000000000000E+00   0.000000000000000E+00   0.000000000000000E+00
   0.000000000000000E+00   0.000000000000000E+00   0.000000000000000E+00
   0.000000000000000E+00   0.000000000000000E+00   0.000000000000000E+00
   0.000000000000000E+00   0.000000000000000E+00   0.000000000000000E+00
   0.000000000000000E+00   0.000000000000000E+00   0.000000000000000E+00
   0.000000000000000E+00   0.000000000000000E+00   0.000000000000000E+00
   0.000000000000000E+00   0.000000000000000E+00   0.000000000000000E+00
   0.000000000000000E+00   0.000000000000000E+00   0.000000000000000E+00
   0.000000000000000E+00   0.000000000000000E+00   0.000000000000000E+00
   0.000000000000000E+00   0.000000000000000E+00   0.000000000000000E+00
   0.000000000000000E+00   0.000000000000000E+00   0.000000000000000E+00
   0.000000000000000E+00
    </PP_BETA.1>
    <PP_BETA.2 index="2" label="3S" angular_momentum="0" cutoff_radius_index="797" cutoff_radius="0.69999999999999996" ultrasoft_cutoff_radius="1.3999999999999999">
  -1.455394477174154E-03  -1.473701086314676E-03  -1.492237964260196E-03
  -1.511008007436066E-03  -1.529935520849355E-03  -1.548636083619194E-03
  -1.568714378114551E-03  -1.588688085484856E-03  -1.608738814240942E-03
  -1.628726239898401E-03  -1.648559020192911E-03  -1.669932599812641E-03
  -1.690789167276148E-03  -1.712578275891608E-03  -1.733445671906453E-03
  -1.755752540565321E-03  -1.777688162135755E-03  -1.799812480900458E-03
  -1.823001790602785E-03  -1.845364864494162E-03  -1.869028284300834E-03
  -1.892611191640137E-03  -1.916043249653362E-03  -1.940487731711819E-03
  -1.964514673538591E-03  -1.989209661943895E-03  -2.014376297439923E-03
  -2.039443212299957E-03  -2.065312460073239E-03  -2.091241328374775E-03
  -2.117851362151782E-03  -2.143785252611057E-03  -2.171263022658340E-03
  -2.198157092074139E-03  -2.226500950123660E-03  -2.253965875106889E-03
  -2.282666272848027E-03  -2.311136053188037E-03  -2.340462833066190E-03
  -2.369747115714034E-03  -2.399642582249223E-03  -2.429445381153700E-03
  -2.460432133027186E-03  -2.491090279751221E-03  -2.522643089653036E-03
  -2.554383170225567E-03  -2.586602451929254E-03  -2.618771612251852E-03
  -2.652121536059634E-03  -2.685359841925386E-03  -2.718984541357325E-03
  -2.753232485134480E-03  -2.787532929534875E-03  -2.822805793219403E-03
  -2.858485673590010E-03  -2.894423683863357E-03  -2.930739504035479E-03
  -2.967335075726990E-03  -3.004869332268929E-03  -3.042939252559455E-03
  -3.081209021502401E-03  -3.119796008134941E-03  -3.159089948184986E-03
  -3.198778835964287E-03  -3.239129150007870E-03  -3.279761357364652E-03
  -3.321101117399848E-03  -3.362852577420111E-03  -3.405353311197849E-03
  -3.448049131742141E-03  -3.491382151417079E-03  -3.535152481602268E-03
  -3.579615981252494E-03  -3.624790574888405E-03  -3.670175666049206E-03
  -3.716439476800172E-03  -3.762971306501427E-03  -3.810514949009467E-03
  -3.858409084958921E-03  -3.907074051220811E-03  -3.956115888558414E-03
  -4.005985843779865E-03  -4.056164340582924E-03  -4.107584770702342E-03
  -4.158896510306348E-03  -4.211493508388175E-03  -4.264076734698484E-03
  -4.317916650036635E-03  -4.372326306442250E-03  -4.427375821344528E-03
  -4.483088413213739E-03  -4.539349167584319E-03  -4.596428887271962E-03
  -4.654131953287210E-03  -4.712768459775148E-03  -4.771904803564679E-03
  -4.832018000004120E-03  -4.892790303112388E-03  -4.954438657192563E-03
  -5.016756674046777E-03  -5.079878998032065E-03  -5.143545812181904E-03
  -5.208323006234711E-03  -5.273956945007527E-03  -5.340355919132544E-03
  -5.407319665376204E-03  -5.475534308022027E-03  -5.544311397309137E-03
  -5.614170256248920E-03  -5.684787028613390E-03  -5.756257444832849E-03
  -5.828621319472134E-03  -5.901831360586760E-03  -5.976249444099392E-03
  -6.051249901794483E-03  -6.127452509100772E-03  -6.204431897023339E-03
  -6.282554502259960E-03  -6.361621452721811E-03  -6.441506121929739E-03
  -6.522646756453244E-03  -6.604726245307204E-03  -6.687668410492134E-03
  -6.771963052374007E-03  -6.856941108929020E-03  -6.943386332735576E-03
  -7.030620872456964E-03  -7.119081119664833E-03  -7.208632879369545E-03
  -7.299189173903230E-03  -7.391139828694247E-03  -7.484089420104178E-03
  -7.578145088810688E-03  -7.673541406272402E-03  -7.770056667626942E-03
  -7.867736074738584E-03  -7.966766589050520E-03  -8.066945413990882E-03
  -8.168420930534173E-03  -8.271180599525274E-03  -8.375294402291428E-03
  -8.480533294654598E-03  -8.587218628039694E-03  -8.695200046770822E-03
  -8.804623830576647E-03  -8.915321870620583E-03  -9.027483534602971E-03
  -9.140992857080045E-03  -9.256089161583979E-03  -9.372398290450109E-03
  -9.490390078761887E-03  -9.609726345674691E-03  -9.730606733629455E-03
  -9.852986994898918E-03  -9.976920478307460E-03  -1.010250656321257E-02
  -1.022949210120952E-02  -1.035817494676116E-02  -1.048843189144314E-02
  -1.062033171762880E-02  -1.075399138306821E-02  -1.088924284447057E-02
  -1.102621555867202E-02  -1.116491222058286E-02  -1.130529180256995E-02
  -1.144763542717163E-02  -1.159157493399775E-02  -1.173727740497229E-02
  -1.188499951611199E-02  -1.203444414294141E-02  -1.218589573895591E-02
  -1.233908999803471E-02  -1.249433955217317E-02  -1.265149827769801E-02
  -1.281061932148825E-02  -1.297175003761973E-02  -1.313491602870506E-02
  -1.330013367487031E-02  -1.346749685430957E-02  -1.363678402105748E-02
  -1.380842137942813E-02  -1.398212279345842E-02  -1.415788149179686E-02
  -1.433602879876382E-02  -1.451628886788254E-02  -1.469894131498190E-02
  -1.488389996916987E-02  -1.507101575663971E-02  -1.526067137748224E-02
  -1.545250071748687E-02  -1.564698689592519E-02  -1.584378904366373E-02
  -1.604302698868064E-02  -1.624487891124009E-02  -1.644914433372976E-02
  -1.665607908587270E-02  -1.686559547891343E-02  -1.707778358617710E-02
  -1.729256870516003E-02  -1.751003990766227E-02  -1.773035360181879E-02
  -1.795334094773481E-02  -1.817914891736498E-02  -1.840778261416657E-02
  -1.863938241884710E-02  -1.887381749746142E-02  -1.911124184623788E-02
  -1.935160097834636E-02  -1.959502921570573E-02  -1.984151336701326E-02
  -2.009106278186779E-02  -2.034378829321737E-02  -2.059964237836624E-02
  -2.085882162496380E-02  -2.112117335294489E-02  -2.138680916042295E-02
  -2.165587535955333E-02  -2.192826604562164E-02  -2.220409392617596E-02
  -2.248336580944096E-02  -2.276620042107112E-02  -2.305253553474936E-02
  -2.334249533980591E-02  -2.363614055241093E-02  -2.393338757202410E-02
  -2.423448239331668E-02  -2.453925859358418E-02  -2.484795361454461E-02
  -2.516051498736501E-02  -2.547697340431708E-02  -2.579741938918185E-02
  -2.612191070576281E-02  -2.645049138347610E-02  -2.678322895354506E-02
  -2.712011500406722E-02  -2.746121380030164E-02  -2.780663899966537E-02
  -2.815639349541572E-02  -2.851057425201748E-02  -2.886917800978925E-02
  -2.923230475673067E-02  -2.960002368705865E-02  -2.997230299195398E-02
  -3.034932142970787E-02  -3.073107125467039E-02  -3.111762660208273E-02
  -3.150902836486452E-02  -3.190535126731051E-02  -3.230669742399490E-02
  -3.271304202952881E-02  -3.312452824364494E-02  -3.354117291706454E-02
  -3.396308498293831E-02  -3.439027364441966E-02  -3.482282804454865E-02
  -3.526085163871030E-02  -3.570439792835273E-02  -3.615347631334181E-02
  -3.660823263267282E-02  -3.706868741384260E-02  -3.753496604007553E-02
  -3.800708189177536E-02  -3.848515449198360E-02  -3.896923212599931E-02
  -3.945940542393087E-02  -3.995573902749854E-02  -4.045834130216088E-02
  -4.096721678006764E-02  -4.148252258038165E-02  -4.200428954481938E-02
  -4.253266985194831E-02  -4.306761679701625E-02  -4.360937596681334E-02
  -4.415787833238891E-02  -4.471333452600052E-02  -4.527572545880951E-02
  -4.584524005348524E-02  -4.642188484036144E-02  -4.700580142935044E-02
  -4.759704873422368E-02  -4.819574809735756E-02  -4.880197234663647E-02
  -4.941579062412321E-02  -5.003736822995515E-02  -5.066674925045356E-02
  -5.130405841953579E-02  -5.194937813529343E-02  -5.260280609406424E-02
  -5.326446095255209E-02  -5.393443075386431E-02  -5.461283590411872E-02
  -5.529974524014311E-02  -5.599535126726289E-02  -5.669965827495531E-02
  -5.741284244088855E-02  -5.813498705346495E-02  -5.886623639764153E-02
  -5.960665665902187E-02  -6.035641246960040E-02  -6.111558383783669E-02
  -6.188431018768228E-02  -6.266268403118999E-02  -6.345087736184134E-02
  -6.424898348105315E-02  -6.505709924750669E-02  -6.587540297201228E-02
  -6.670399770535515E-02  -6.754301930099392E-02  -6.839257728905521E-02
  -6.925283048702367E-02  -7.012388960389468E-02  -7.100591906406825E-02
  -7.189903853786593E-02  -7.280338509191428E-02  -7.371912783625252E-02
  -7.464637037819248E-02  -7.558526946295810E-02  -7.653599303514633E-02
  -7.749865606079609E-02  -7.847344568718667E-02  -7.946047706058565E-02
  -8.045993535456283E-02  -8.147196631344683E-02  -8.249670719099997E-02
  -8.353436361430494E-02  -8.458504863799690E-02  -8.564895608440189E-02
  -8.672623870361726E-02  -8.781707944337025E-02  -8.892164275814846E-02
  -9.004007840462984E-02  -9.117260011762757E-02  -9.231936148791775E-02
  -9.348053362162995E-02  -9.465632729417951E-02  -9.584688343902309E-02
  -9.705243553020892E-02  -9.827313364566277E-02  -9.950918799310038E-02
  -1.007607928105538E-01  -1.020281402877316E-01  -1.033114228867884E-01
  -1.046108395653123E-01  -1.059266009010559E-01  -1.072589131171772E-01
  -1.086079869833698E-01  -1.099740198012584E-01  -1.113572121552898E-01
  -1.127578323499383E-01  -1.141760417951752E-01  -1.156120950150825E-01
  -1.170662197452680E-01  -1.185386098806398E-01  -1.200295321642871E-01
  -1.215392026818711E-01  -1.230678389671897E-01  -1.246157222933246E-01
  -1.261830575892121E-01  -1.277701009452025E-01  -1.293771049055876E-01
  -1.310043176221138E-01  -1.326519950855241E-01  -1.343203925042003E-01
  -1.360097597260170E-01  -1.377203804969492E-01  -1.394525034230588E-01
  -1.412064186579599E-01  -1.429823761383309E-01  -1.447806672720577E-01
  -1.466015736915162E-01  -1.484453750193012E-01  -1.503123586751938E-01
  -1.522028170305859E-01  -1.541170484416873E-01  -1.560553530158043E-01
  -1.580180204299649E-01  -1.600053621156657E-01  -1.620176965786447E-01
  -1.640553314098363E-01  -1.661185856448224E-01  -1.682077828126112E-01
  -1.703232419171995E-01  -1.724652988952472E-01  -1.746342878129998E-01
  -1.768305473387079E-01  -1.790544166003424E-01  -1.813062409773211E-01
  -1.835863745419642E-01  -1.858951762653038E-01  -1.882330016890380E-01
  -1.906002150608102E-01  -1.929971878071151E-01  -1.954242918096092E-01
  -1.978819097636482E-01  -2.003704102972360E-01  -2.028902023184609E-01
  -2.054416664547459E-01  -2.080251955871098E-01  -2.106412027774412E-01
  -2.132900841840158E-01  -2.159722771330418E-01  -2.186881581480907E-01
  -2.214381946331770E-01  -2.242227804677002E-01  -2.270423701969126E-01
  -2.298973938445502E-01  -2.327882955813941E-01  -2.357155303200635E-01
  -2.386795543865247E-01  -2.416808189434286E-01  -2.447198092635298E-01
  -2.477969744525209E-01  -2.509128166439329E-01  -2.540678085327290E-01
  -2.572624370786397E-01  -2.604972105784361E-01  -2.637726216527174E-01
  -2.670891945963462E-01  -2.704474289737372E-01  -2.738478536070803E-01
  -2.772909999501038E-01  -2.807773972678480E-01  -2.843075933570630E-01
  -2.878821342848958E-01  -2.915015775610127E-01  -2.951664818180472E-01
  -2.988774168750207E-01  -3.026349601223521E-01  -3.064396977258273E-01
  -3.102922174150325E-01  -3.141931238007144E-01  -3.181430107355284E-01
  -3.221425008415039E-01  -3.261922120389216E-01  -3.302927711741721E-01
  -3.344448183535478E-01  -3.386489912550288E-01  -3.429059465345716E-01
  -3.472163442465176E-01  -3.515808513113599E-01  -3.560001450991773E-01
  -3.604749089850831E-01  -3.650058375223447E-01  -3.695936267953526E-01
  -3.742389979499436E-01  -3.789426627008794E-01  -3.837053529624401E-01
  -3.885278012655063E-01  -3.934107570518006E-01  -3.983549741782405E-01
  -4.033612173613320E-01  -4.084302625409670E-01  -4.135628841408234E-01
  -4.187598910070240E-01  -4.240220709446947E-01  -4.293502432458912E-01
  -4.347452330221819E-01  -4.402078638602855E-01  -4.457389869867416E-01
  -4.513394503612423E-01  -4.570101173574423E-01  -4.627518651607058E-01
  -4.685655759072787E-01  -4.744521421430943E-01  -4.804124758835715E-01
  -4.864474904439944E-01  -4.925581141539735E-01  -4.987452878941737E-01
  -5.050099583008925E-01  -5.113530921048176E-01  -5.177756646382949E-01
  -5.242786548580275E-01  -5.308630622388891E-01  -5.375299015007367E-01
  -5.442801867382214E-01  -5.511149585683985E-01  -5.580352578339227E-01
  -5.650421448784658E-01  -5.721366922598532E-01  -5.793199852160678E-01
  -5.865931164732157E-01  -5.939571985700121E-01  -6.014133553506947E-01
  -6.089627222736163E-01  -6.166064466129997E-01  -6.243456997607592E-01
  -6.321816507511022E-01  -6.401154943999763E-01  -6.481484339860019E-01
  -6.562816943613927E-01  -6.645165010378764E-01  -6.728541056106718E-01
  -6.812957706223894E-01  -6.898427751651439E-01  -6.984964061553584E-01
  -7.072579745586023E-01  -7.161287980629447E-01  -7.251102193710356E-01
  -7.342035859216272E-01  -7.434102659881230E-01  -7.527316450287052E-01
  -7.621691224669087E-01  -7.717241108902102E-01  -7.813980422562231E-01
  -7.911923633314737E-01  -8.011085399938316E-01  -8.111480470054665E-01
  -8.213123851095305E-01  -8.316030631937472E-01  -8.420216143107420E-01
  -8.525695810752377E-01  -8.632485283594701E-01  -8.740600374927628E-01
  -8.850057007889305E-01  -8.960871396204744E-01  -9.073059827061758E-01
  -9.186638778423724E-01  -9.301624938874519E-01  -9.418035134713640E-01
  -9.535886405836251E-01  -9.655195937990544E-01  -9.775981114895266E-01
  -9.898259479513359E-01  -1.002204877600886E+00  -1.014736691682993E+00
  -1.027423200812751E+00  -1.040266230910228E+00  -1.053267625865776E+00
  -1.066429253087116E+00  -1.079752992669503E+00  -1.093240743742295E+00
  -1.106894425152518E+00  -1.120715974404866E+00  -1.134707341931681E+00
  -1.148870501316483E+00  -1.163207443319664E+00  -1.177720175336041E+00
  -1.192410720958892E+00  -1.207281126036827E+00  -1.222333448597040E+00
  -1.237569768396288E+00  -1.252992178869953E+00  -1.268602793292151E+00
  -1.284403740386429E+00  -1.300397162802750E+00  -1.316585225962377E+00
  -1.332970105951177E+00  -1.349553996674007E+00  -1.366339104831186E+00
  -1.383327657503835E+00  -1.400521891144782E+00  -1.417924059189099E+00
  -1.435536427136985E+00  -1.453361276351252E+00  -1.471400897648396E+00
  -1.489657596962745E+00  -1.508133689796120E+00  -1.526831503102473E+00
  -1.545753373997595E+00  -1.564901649046016E+00  -1.584278684065993E+00
  -1.603886840738626E+00  -1.623728488689510E+00  -1.643806004669974E+00
  -1.664121767048849E+00  -1.684678160426745E+00  -1.705477569644395E+00
  -1.726522382935900E+00  -1.747814986742893E+00  -1.769357765798600E+00
  -1.791153102535780E+00  -1.813203371570807E+00  -1.835510945501731E+00
  -1.858078183915825E+00  -1.880907439418679E+00  -1.904001050173659E+00
  -1.927361338580940E+00  -1.950990613216622E+00  -1.974891159740581E+00
  -1.999065242652672E+00  -2.023515103103227E+00  -2.048242951853911E+00
  -2.073250969867217E+00  -2.098541303293529E+00  -2.124116061520865E+00
  -2.149977311328648E+00  -2.176127073362474E+00  -2.202567321278318E+00
  -2.229299971798290E+00  -2.256326885545414E+00  -2.283649858945814E+00
  -2.311270617877293E+00  -2.339190818916415E+00  -2.367412034651761E+00
  -2.395935753683914E+00  -2.424763372455478E+00  -2.453896188773328E+00
  -2.483335393510594E+00  -2.513082065706816E+00  -2.543137161933914E+00
  -2.573501508350789E+00  -2.604175794418619E+00  -2.635160560144545E+00
  -2.666456189223899E+00  -2.698062896223185E+00  -2.729980718484745E+00
  -2.762209501038590E+00  -2.794748888040140E+00  -2.827598309052008E+00
  -2.860756963587439E+00  -2.894223810013189E+00  -2.927997548723012E+00
  -2.962076607356144E+00  -2.996459123359762E+00  -3.031142929942187E+00
  -3.066125532087138E+00  -3.101404092778907E+00  -3.136975411626565E+00
  -3.172835900280780E+00  -3.208981565571979E+00  -3.245407982012436E+00
  -3.282110269291191E+00  -3.319083065755673E+00  -3.356320502857712E+00
  -3.393816173252564E+00  -3.431563106045087E+00  -3.469553730808929E+00
  -3.507779848189667E+00  -3.546232595048325E+00  -3.584902406289314E+00
  -3.623778980464580E+00  -3.662851238310296E+00  -3.702107282485324E+00
  -3.741534353733601E+00  -3.781118787271313E+00  -3.820845964345919E+00
  -3.860700264067717E+00  -3.900665011245869E+00  -3.940722424407411E+00
  -3.980853558487905E+00  -4.021038248639910E+00  -4.061255047862396E+00
  -4.101481165846041E+00  -4.141692403242699E+00  -4.181863083073585E+00
  -4.221965982357526E+00  -4.261972256721315E+00  -4.301851368115178E+00
  -4.341571003171607E+00  -4.381096995847865E+00  -4.420393242409418E+00
  -4.459421615801751E+00  -4.498141878895935E+00  -4.536511591767080E+00
  -4.574486019666846E+00  -4.612018039366438E+00  -4.649058038506693E+00
  -4.685553818961559E+00  -4.721450495102560E+00  -4.756690391206791E+00
  -4.791212936105699E+00  -4.824954561648470E+00  -4.857848593714333E+00
  -4.889825148769654E+00  -4.920811027035214E+00  -4.950729608614381E+00
  -4.979500748757200E+00  -5.007040677770648E+00  -5.033261899819278E+00
  -5.058073098482417E+00  -5.081379045163776E+00  -5.103080511243681E+00
  -5.123074190316125E+00  -5.141252621696186E+00  -5.157504129168050E+00
  -5.171712765020093E+00  -5.183758265590622E+00  -5.193516023662119E+00
  -5.200857070434578E+00  -5.205648077035891E+00  -5.207751375110726E+00
  -5.207024993849473E+00  -5.203322725920710E+00  -5.196494213249765E+00
  -5.186385063609825E+00  -5.172836997632056E+00  -5.155688027353150E+00
  -5.134772673626159E+00  -5.109922221544203E+00  -5.080965018859636E+00
  -5.047726822334591E+00  -5.010031190381363E+00  -4.967699933305939E+00
  -4.920553617932480E+00  -4.868412133513474E+00  -4.811095323395559E+00
  -4.748423684380320E+00  -4.680219137930974E+00  -4.606305878052477E+00
  -4.526511298283889E+00  -4.440667001389204E+00  -4.348609894799091E+00
  -4.250183374979109E+00  -4.145238602636295E+00  -4.033635870962854E+00
  -3.915246068286325E+00  -3.789952235390357E+00  -3.657651218132748E+00
  -3.518255413967333E+00  -3.371694609411186E+00  -3.217917908596426E+00
  -3.056895743093341E+00  -2.888621963691838E+00  -2.713115999928917E+00
  -2.530425084967583E+00  -2.340626528995221E+00  -2.143830031937590E+00
  -1.940180019623720E+00  -1.729857983640940E+00  -1.513084808821009E+00
  -1.290123062848215E+00  -1.061279223236502E+00  -8.269058154654894E-01
  -5.874034293169861E-01  -3.432225809204215E-01  -9.486538352311480E-02
   1.571130130758314E-01   4.121032558293131E-01   6.694409417148732E-01
   9.284061362101066E-01   1.188223310131853E+00   1.448061745624559E+00
   1.707036466027510E+00   1.964209746210229E+00   2.218593259173220E+00
   2.469150917065861E+00   2.714802462552331E+00   2.954427866784589E+00
   3.186872587480695E+00   3.410953736452128E+00   3.625467203953466E+00
   3.829195777342641E+00   4.020918288248188E+00   4.199419807650375E+00
   4.363502901591524E+00   4.511999940622831E+00   4.643786441986683E+00
   4.757795401389714E+00   4.853032545955590E+00   4.928592412147501E+00
   4.983675119795254E+00   5.017603672105254E+00   5.029841572719866E+00
   5.020010496565463E+00   4.987907701001240E+00   4.933522800031033E+00
   4.857053458658755E+00   4.758919494485362E+00   4.639774793361513E+00
   4.500516369380700E+00   4.342289812161328E+00   4.166490278837445E+00
   3.974758102715755E+00   3.768967997061980E+00   3.551210749230033E+00
   3.323766205176867E+00   3.089066250407137E+00   2.849646393019824E+00
   2.608084430347852E+00   2.366924540919066E+00   2.128584952520425E+00
   1.895247094730450E+00   1.668723814836141E+00   1.450303801831671E+00
   1.240568802608478E+00   1.039724961137380E+00   8.494507285289243E-01
   6.719111781997174E-01   5.092977278109555E-01   3.638090223279425E-01
   2.376294358624428E-01   1.329052651233021E-01   5.171753704737188E-02
  -3.938156812004160E-03  -3.226561338935997E-02  -3.089552374917911E-02
  -4.748305210591552E-03   5.259740740422450E-04   6.154747539558998E-06
   6.035589080560353E-05   5.723938652020564E-05   5.942117032033578E-05
   6.071551432663829E-05   6.175754436040800E-05   6.250580476097468E-05
   6.298547809923210E-05   6.321468760736323E-05   6.321182002529802E-05
   6.299468326240567E-05   6.258064765615970E-05   6.198654437853841E-05
   6.122866126562036E-05   6.032274319254100E-05   5.928392701912059E-05
   5.812674800777509E-05   5.686510866556747E-05   5.551226008371508E-05
   5.408081667904089E-05   5.258269100366705E-05   5.102914647622504E-05
   4.943075347106134E-05   4.779740193889340E-05   4.613832213052708E-05
   4.446206159682107E-05   4.277653279561521E-05   4.108900020880121E-05
   0.000000000000000E+00   0.000000000000000E+00   0.000000000000000E+00
   0.000000000000000E+00   0.000000000000000E+00   0.000000000000000E+00
   0.000000000000000E+00   0.000000000000000E+00   0.000000000000000E+00
   0.000000000000000E+00   0.000000000000000E+00   0.000000000000000E+00
   0.000000000000000E+00   0.000000000000000E+00   0.000000000000000E+00
   0.000000000000000E+00   0.000000000000000E+00   0.000000000000000E+00
   0.000000000000000E+00   0.000000000000000E+00   0.000000000000000E+00
   0.000000000000000E+00   0.000000000000000E+00   0.000000000000000E+00
   0.000000000000000E+00   0.000000000000000E+00   0.000000000000000E+00
   0.000000000000000E+00   0.000000000000000E+00   0.000000000000000E+00
   0.000000000000000E+00   0.000000000000000E+00   0.000000000000000E+00
   0.000000000000000E+00   0.000000000000000E+00   0.000000000000000E+00
   0.000000000000000E+00   0.000000000000000E+00   0.000000000000000E+00
   0.000000000000000E+00   0.000000000000000E+00   0.000000000000000E+00
   0.000000000000000E+00   0.000000000000000E+00   0.000000000000000E+00
   0.000000000000000E+00   0.000000000000000E+00   0.000000000000000E+00
   0.000000000000000E+00   0.000000000000000E+00   0.000000000000000E+00
   0.000000000000000E+00   0.000000000000000E+00   0.000000000000000E+00
   0.000000000000000E+00   0.000000000000000E+00   0.000000000000000E+00
   0.000000000000000E+00   0.000000000000000E+00   0.000000000000000E+00
   0.000000000000000E+00   0.000000000000000E+00   0.000000000000000E+00
   0.000000000000000E+00   0.000000000000000E+00   0.000000000000000E+00
   0.000000000000000E+00   0.000000000000000E+00   0.000000000000000E+00
   0.000000000000000E+00   0.000000000000000E+00   0.000000000000000E+00
   0.000000000000000E+00   0.000000000000000E+00   0.000000000000000E+00
   0.000000000000000E+00   0.000000000000000E+00   0.000000000000000E+00
   0.000000000000000E+00   0.000000000000000E+00   0.000000000000000E+00
   0.000000000000000E+00   0.000000000000000E+00   0.000000000000000E+00
   0.000000000000000E+00   0.000000000000000E+00   0.000000000000000E+00
   0.000000000000000E+00   0.000000000000000E+00   0.000000000000000E+00
   0.000000000000000E+00   0.000000000000000E+00   0.000000000000000E+00
   0.000000000000000E+00   0.000000000000000E+00   0.000000000000000E+00
   0.000000000000000E+00   0.000000000000000E+00   0.000000000000000E+00
   0.000000000000000E+00   0.000000000000000E+00   0.000000000000000E+00
   0.000000000000000E+00   0.000000000000000E+00   0.000000000000000E+00
   0.000000000000000E+00   0.000000000000000E+00   0.000000000000000E+00
   0.000000000000000E+00   0.000000000000000E+00   0.000000000000000E+00
   0.000000000000000E+00   0.000000000000000E+00   0.000000000000000E+00
   0.000000000000000E+00   0.000000000000000E+00   0.000000000000000E+00
   0.000000000000000E+00   0.000000000000000E+00   0.000000000000000E+00
   0.000000000000000E+00   0.000000000000000E+00   0.000000000000000E+00
   0.000000000000000E+00   0.000000000000000E+00   0.000000000000000E+00
   0.000000000000000E+00   0.000000000000000E+00   0.000000000000000E+00
   0.000000000000000E+00   0.000000000000000E+00   0.000000000000000E+00
   0.000000000000000E+00   0.000000000000000E+00   0.000000000000000E+00
   0.000000000000000E+00   0.000000000000000E+00   0.000000000000000E+00
   0.000000000000000E+00   0.000000000000000E+00   0.000000000000000E+00
   0.000000000000000E+00   0.000000000000000E+00   0.000000000000000E+00
   0.000000000000000E+00   0.000000000000000E+00   0.000000000000000E+00
   0.000000000000000E+00   0.000000000000000E+00   0.000000000000000E+00
   0.000000000000000E+00   0.000000000000000E+00   0.000000000000000E+00
   0.000000000000000E+00   0.000000000000000E+00   0.000000000000000E+00
   0.000000000000000E+00   0.000000000000000E+00   0.000000000000000E+00
   0.000000000000000E+00   0.000000000000000E+00   0.000000000000000E+00
   0.000000000000000E+00   0.000000000000000E+00   0.000000000000000E+00
   0.000000000000000E+00   0.000000000000000E+00   0.000000000000000E+00
   0.000000000000000E+00   0.000000000000000E+00   0.000000000000000E+00
   0.000000000000000E+00   0.000000000000000E+00   0.000000000000000E+00
   0.000000000000000E+00   0.000000000000000E+00   0.000000000000000E+00
   0.000000000000000E+00   0.000000000000000E+00   0.000000000000000E+00
   0.000000000000000E+00   0.000000000000000E+00   0.000000000000000E+00
   0.000000000000000E+00   0.000000000000000E+00   0.000000000000000E+00
   0.000000000000000E+00   0.000000000000000E+00   0.000000000000000E+00
   0.000000000000000E+00   0.000000000000000E+00   0.000000000000000E+00
   0.000000000000000E+00   0.000000000000000E+00   0.000000000000000E+00
   0.000000000000000E+00   0.000000000000000E+00   0.000000000000000E+00
   0.000000000000000E+00   0.000000000000000E+00   0.000000000000000E+00
   0.000000000000000E+00   0.000000000000000E+00   0.000000000000000E+00
   0.000000000000000E+00   0.000000000000000E+00   0.000000000000000E+00
   0.000000000000000E+00   0.000000000000000E+00   0.000000000000000E+00
   0.000000000000000E+00   0.000000000000000E+00   0.000000000000000E+00
   0.000000000000000E+00   0.000000000000000E+00   0.000000000000000E+00
   0.000000000000000E+00   0.000000000000000E+00   0.000000000000000E+00
   0.000000000000000E+00   0.000000000000000E+00   0.000000000000000E+00
   0.000000000000000E+00   0.000000000000000E+00   0.000000000000000E+00
   0.000000000000000E+00   0.000000000000000E+00   0.000000000000000E+00
   0.000000000000000E+00   0.000000000000000E+00   0.000000000000000E+00
   0.000000000000000E+00   0.000000000000000E+00   0.000000000000000E+00
   0.000000000000000E+00   0.000000000000000E+00   0.000000000000000E+00
   0.000000000000000E+00   0.000000000000000E+00   0.000000000000000E+00
   0.000000000000000E+00   0.000000000000000E+00   0.000000000000000E+00
   0.000000000000000E+00   0.000000000000000E+00   0.000000000000000E+00
   0.000000000000000E+00   0.000000000000000E+00   0.000000000000000E+00
   0.000000000000000E+00   0.000000000000000E+00   0.000000000000000E+00
   0.000000000000000E+00   0.000000000000000E+00   0.000000000000000E+00
   0.000000000000000E+00   0.000000000000000E+00   0.000000000000000E+00
   0.000000000000000E+00   0.000000000000000E+00   0.000000000000000E+00
   0.000000000000000E+00   0.000000000000000E+00   0.000000000000000E+00
   0.000000000000000E+00   0.000000000000000E+00   0.000000000000000E+00
   0.000000000000000E+00   0.000000000000000E+00   0.000000000000000E+00
   0.000000000000000E+00   0.000000000000000E+00   0.000000000000000E+00
   0.000000000000000E+00   0.000000000000000E+00   0.000000000000000E+00
   0.000000000000000E+00   0.000000000000000E+00   0.000000000000000E+00
   0.000000000000000E+00   0.000000000000000E+00   0.000000000000000E+00
   0.000000000000000E+00   0.000000000000000E+00   0.000000000000000E+00
   0.000000000000000E+00   0.000000000000000E+00   0.000000000000000E+00
   0.000000000000000E+00   0.000000000000000E+00   0.000000000000000E+00
   0.000000000000000E+00   0.000000000000000E+00   0.000000000000000E+00
   0.000000000000000E+00   0.000000000000000E+00   0.000000000000000E+00
   0.000000000000000E+00   0.000000000000000E+00   0.000000000000000E+00
   0.000000000000000E+00   0.000000000000000E+00   0.000000000000000E+00
   0.000000000000000E+00   0.000000000000000E+00   0.000000000000000E+00
   0.000000000000000E+00   0.000000000000000E+00   0.000000000000000E+00
   0.000000000000000E+00   0.000000000000000E+00   0.000000000000000E+00
   0.000000000000000E+00
    </PP_BETA.2>
    <PP_BETA.3 index="3" label="2P" angular_momentum="1" cutoff_radius_index="791" cutoff_radius="0.90000000000000002" ultrasoft_cutoff_radius="1.3000000000000000">
  -1.820748529856759E-06  -1.866840998857802E-06  -1.914100304293692E-06
  -1.962555984770781E-06  -2.012238326668881E-06  -2.063178383071226E-06
  -2.115407993173669E-06  -2.168959802185236E-06  -2.223867281732425E-06
  -2.280164750780103E-06  -2.337887397081950E-06  -2.397071299173975E-06
  -2.457753448924779E-06  -2.519971774656681E-06  -2.583765164852184E-06
  -2.649173492460516E-06  -2.716237639819557E-06  -2.784999524208633E-06
  -2.855502124048181E-06  -2.927789505762699E-06  -3.001906851323678E-06
  -3.077900486489822E-06  -3.155817909762182E-06  -3.235707822072265E-06
  -3.317620157221730E-06  -3.401606113092636E-06  -3.487718183647807E-06
  -3.576010191741292E-06  -3.666537322759401E-06  -3.759356159113414E-06
  -3.854524715605413E-06  -3.952102475689468E-06  -4.052150428650739E-06
  -4.154731107725789E-06  -4.259908629187931E-06  -4.367748732421986E-06
  -4.478318821013572E-06  -4.591688004878570E-06  -4.707927143459093E-06
  -4.827108890012996E-06  -4.949307737024520E-06  -5.074600062764574E-06
  -5.203064179029675E-06  -5.334780380089391E-06  -5.469830992872958E-06
  -5.608300428426260E-06  -5.750275234671564E-06  -5.895844150502831E-06
  -6.045098161250449E-06  -6.198130555550095E-06  -6.355036983651186E-06
  -6.515915517201480E-06  -6.680866710545092E-06  -6.849993663572274E-06
  -7.023402086160343E-06  -7.201200364245748E-06  -7.383499627568950E-06
  -7.570413819134180E-06  -7.762059766427592E-06  -7.958557254438371E-06
  -8.160029100528270E-06  -8.366601231196577E-06  -8.578402760788372E-06
  -8.795566072195277E-06  -9.018226899599226E-06  -9.246524413310778E-06
  -9.480601306755248E-06  -9.720603885660876E-06  -9.966682159504733E-06
  -1.021898993527376E-05  -1.047768491359918E-05  -1.074292878732471E-05
  -1.101488734257003E-05  -1.129373056235261E-05  -1.157963273283287E-05
  -1.187277255224880E-05  -1.217333324260844E-05  -1.248150266420971E-05
  -1.279747343305950E-05  -1.312144304126515E-05  -1.345361398047359E-05
  -1.379419386843557E-05  -1.414339557877364E-05  -1.450143737403547E-05
  -1.486854304211530E-05  -1.524494203612887E-05  -1.563086961782951E-05
  -1.602656700465460E-05  -1.643228152049475E-05  -1.684826675027966E-05
  -1.727478269847724E-05  -1.771209595160527E-05  -1.816047984485715E-05
  -1.862021463294564E-05  -1.909158766527176E-05  -1.957489356552782E-05
  -2.007043441584749E-05  -2.057851994561740E-05  -2.109946772506864E-05
  -2.163360336376929E-05  -2.218126071414126E-05  -2.274278208012989E-05
  -2.331851843115553E-05  -2.390882962148169E-05  -2.451408461513649E-05
  -2.513466171652775E-05  -2.577094880689662E-05  -2.642334358675670E-05
  -2.709225382447083E-05  -2.777809761112063E-05  -2.848130362182786E-05
  -2.920231138369149E-05  -2.994157155050764E-05  -3.069954618444393E-05
  -3.147670904484484E-05  -3.227354588434775E-05  -3.309055475249567E-05
  -3.392824630703592E-05  -3.478714413309925E-05  -3.566778507045933E-05
  -3.657071954907663E-05  -3.749651193313689E-05  -3.844574087379895E-05
  -3.941899967087251E-05  -4.041689664365205E-05  -4.144005551113803E-05
  -4.248911578188411E-05  -4.356473315371300E-05  -4.466757992355161E-05
  -4.579834540764124E-05  -4.695773637238510E-05  -4.814647747610356E-05
  -4.936531172197205E-05  -5.061500092242549E-05  -5.189632617531957E-05
  -5.321008835214542E-05  -5.455710859860427E-05  -5.593822884785435E-05
  -5.735431234675032E-05  -5.880624419540560E-05  -6.029493190041263E-05
  -6.182130594206924E-05  -6.338632035596408E-05  -6.499095332928521E-05
  -6.663620781222479E-05  -6.832311214486097E-05  -7.005272069991046E-05
  -7.182611454175220E-05  -7.364440210213443E-05  -7.550871987298838E-05
  -7.742023311677942E-05  -7.938013659484256E-05  -8.138965531415531E-05
  -8.345004529301550E-05  -8.556259434610353E-05  -8.772862288941719E-05
  -8.994948476558530E-05  -9.222656809007419E-05  -9.456129611881605E-05
  -9.695512813780260E-05  -9.940956037519786E-05  -1.019261269365433E-04
  -1.045064007636372E-04  -1.071519946176886E-04  -1.098645620873619E-04
  -1.126457986223375E-04  -1.154974425930424E-04  -1.184212763772037E-04
  -1.214191274739121E-04  -1.244928696458890E-04  -1.276444240906668E-04
  -1.308757606414249E-04  -1.341888989982194E-04  -1.375859099903867E-04
  -1.410689168709046E-04  -1.446400966435183E-04  -1.483016814234702E-04
  -1.520559598326704E-04  -1.559052784301917E-04  -1.598520431789785E-04
  -1.638987209496829E-04  -1.680478410625787E-04  -1.723019968685027E-04
  -1.766638473698243E-04  -1.811361188824507E-04  -1.857216067399030E-04
  -1.904231770405411E-04  -1.952437684390127E-04  -2.001863939830595E-04
  -2.052541429968251E-04  -2.104501830118344E-04  -2.157777617468680E-04
  -2.212402091379495E-04  -2.268409394197298E-04  -2.325834532595655E-04
  -2.384713399456160E-04  -2.445082796303468E-04  -2.506980456308195E-04
  -2.570445067872214E-04  -2.635516298811076E-04  -2.702234821148534E-04
  -2.770642336538929E-04  -2.840781602333032E-04  -2.912696458303879E-04
  -2.986431854049188E-04  -3.062033877087447E-04  -3.139549781665427E-04
  -3.219028018294875E-04  -3.300518264037040E-04  -3.384071453553931E-04
  -3.469739810945578E-04  -3.557576882393476E-04  -3.647637569630300E-04
  -3.739978164257055E-04  -3.834656382929035E-04  -3.931731403432485E-04
  -4.031263901674785E-04  -4.133316089610935E-04  -4.234271603602200E-04
  -4.341395384080544E-04  -4.451531091740513E-04  -4.564268630595662E-04
  -4.679889034376580E-04  -4.798619030854924E-04  -4.919989714303568E-04
  -5.044823051784682E-04  -5.172602791178312E-04  -5.303608144782693E-04
  -5.438075718209159E-04  -5.575698334998994E-04  -5.717083315577502E-04
  -5.861875249603273E-04  -6.010367247814772E-04  -6.162733644127211E-04
  -6.318709118101730E-04  -6.478858296996929E-04  -6.642924084209179E-04
  -6.811222692097919E-04  -6.983891323639373E-04  -7.160562994157024E-04
  -7.342182104354498E-04  -7.528033256022511E-04  -7.718740086473630E-04
  -7.914286862568253E-04  -8.114737245726407E-04  -8.320311561895927E-04
  -8.531061019693709E-04  -8.747080146595397E-04  -8.968702336722808E-04
  -9.195834364598832E-04  -9.428814372609189E-04  -9.667624877860474E-04
  -9.912440514731056E-04  -1.016357991632481E-03  -1.042091015046482E-03
  -1.068490542257667E-03  -1.095550123916052E-03  -1.123297602995535E-03
  -1.151754707861628E-03  -1.180912655739048E-03  -1.210835866652863E-03
  -1.241492526199743E-03  -1.272937947562061E-03  -1.305180346976685E-03
  -1.338230472871641E-03  -1.372132057431433E-03  -1.406880100969029E-03
  -1.442636294264927E-03  -1.479160532784167E-03  -1.516602171230674E-03
  -1.554998583797016E-03  -1.594366027455971E-03  -1.634717957063533E-03
  -1.676108288093197E-03  -1.718536986491234E-03  -1.762037501615714E-03
  -1.806643888408579E-03  -1.852381777542351E-03  -1.899272315250999E-03
  -1.947351419783263E-03  -1.996654341338246E-03  -2.047197370111394E-03
  -2.099021309693043E-03  -2.152156324197388E-03  -2.206640722749567E-03
  -2.262497031308226E-03  -2.319777344708958E-03  -2.378502545758905E-03
  -2.438708335602423E-03  -2.500443970565035E-03  -2.563747808905824E-03
  -2.628645947089135E-03  -2.695190689858771E-03  -2.763420843112654E-03
  -2.833376647657087E-03  -2.905098332114946E-03  -2.978640203739112E-03
  -3.054043784342809E-03  -3.131357131676435E-03  -3.210628956058514E-03
  -3.291902052356787E-03  -3.375233797219954E-03  -3.460682560606033E-03
  -3.548280700659101E-03  -3.638110769516280E-03  -3.730207200041572E-03
  -3.824632389579088E-03  -3.921451635851839E-03  -4.020724166615101E-03
  -4.122505507874883E-03  -4.226862987912461E-03  -4.333867055538064E-03
  -4.443573779088710E-03  -4.556063324581474E-03  -4.671398918962201E-03
  -4.789651311657848E-03  -4.910894717910558E-03  -5.035213591698843E-03
  -5.162672875830369E-03  -5.293368411488975E-03  -5.427360568340148E-03
  -5.564755384984556E-03  -5.705615241729184E-03  -5.850054137299635E-03
  -5.998141252878522E-03  -6.149975500238592E-03  -6.305659675627425E-03
  -6.465280758752152E-03  -6.628941935689229E-03  -6.796750719538797E-03
  -6.968802476256918E-03  -7.145213134895840E-03  -7.326080268848633E-03
  -7.511538323743131E-03  -7.701681303768416E-03  -7.896638777122494E-03
  -8.096534041218248E-03  -8.301487835567715E-03  -8.511629616325933E-03
  -8.727089873321743E-03  -8.948000646228322E-03  -9.174510770515464E-03
  -9.406746741673386E-03  -9.644872523950585E-03  -9.889011587972516E-03
  -1.013933848852788E-02  -1.039599677760295E-02  -1.065915486270637E-02
  -1.092897558799788E-02  -1.120562004163135E-02  -1.148927121311268E-02
  -1.178009644163683E-02  -1.207829444387210E-02  -1.238403115533124E-02
  -1.269750398413310E-02  -1.301892264566441E-02  -1.334846599460935E-02
  -1.368635529345690E-02  -1.403278623146573E-02  -1.438799923952740E-02
  -1.475219730593462E-02  -1.512560804999264E-02  -1.550848272234108E-02
  -1.590103312131297E-02  -1.630353198556903E-02  -1.671621089223593E-02
  -1.713933625962143E-02  -1.757316442953633E-02  -1.801798127734297E-02
  -1.847405023603993E-02  -1.894166318754029E-02  -1.942111133121541E-02
  -1.991269439364000E-02  -2.041671432095277E-02  -2.093350399544588E-02
  -2.146335418070008E-02  -2.200662212613717E-02  -2.256363451304468E-02
  -2.313475266082176E-02  -2.372031325637794E-02  -2.432070278516193E-02
  -2.493627639892240E-02  -2.556743623336473E-02  -2.621456611379210E-02
  -2.687806780099018E-02  -2.755837963033580E-02  -2.825579342257930E-02
  -2.897120955827417E-02  -2.970412941470655E-02  -3.045623976887699E-02
  -3.122675564710256E-02  -3.201743982176816E-02  -3.282783054445829E-02
  -3.365837956800311E-02  -3.450989376884680E-02  -3.538429801850015E-02
  -3.627911236729613E-02  -3.719761363272108E-02  -3.813880421937536E-02
  -3.910406040880592E-02  -4.009400949583317E-02  -4.110829317453265E-02
  -4.214899091309957E-02  -4.321553426064862E-02  -4.430911793690861E-02
  -4.543100145554840E-02  -4.657998336139652E-02  -4.775901258341265E-02
  -4.896821758546949E-02  -5.020637849049045E-02  -5.147783026597903E-02
  -5.278034272449335E-02  -5.411549018695319E-02  -5.548552282987150E-02
  -5.688944795766235E-02  -5.832874252685490E-02  -5.980524820442187E-02
  -6.131809215907115E-02  -6.287007588984041E-02  -6.446084649064707E-02
  -6.609163373139190E-02  -6.776466893849065E-02  -6.947873034074846E-02
  -7.123697096844521E-02  -7.303954557595962E-02  -7.488738312750726E-02
  -7.678238949489403E-02  -7.872500954479039E-02  -8.071690749064912E-02
  -8.275908969211739E-02  -8.485301450564033E-02  -8.699979214718875E-02
  -8.920070336693806E-02  -9.145771129916935E-02  -9.377133425476912E-02
  -9.614379954128056E-02  -9.857568019835672E-02  -1.010699182841188E-01
  -1.036263167883330E-01  -1.062484042212223E-01  -1.089351427663651E-01
  -1.116915889306769E-01  -1.145165944870143E-01  -1.174130205950289E-01
  -1.203832543421897E-01  -1.234285439606491E-01  -1.265500701489767E-01
  -1.297506215626184E-01  -1.330328849584176E-01  -1.363971131165304E-01
  -1.398468656810196E-01  -1.433841755750898E-01  -1.470094809658276E-01
  -1.507278189288944E-01  -1.545396636502021E-01  -1.584471936893229E-01
  -1.624543069249391E-01  -1.665620573985037E-01  -1.707736959163364E-01
  -1.750914702851253E-01  -1.795191017575090E-01  -1.840578532553979E-01
  -1.887113048698507E-01  -1.934820140600838E-01  -1.983739271716875E-01
  -2.033885647984946E-01  -2.085302890363847E-01  -2.138018114350815E-01
  -2.192056490401547E-01  -2.247469217716390E-01  -2.304271402459899E-01
  -2.362516472900152E-01  -2.422221249671268E-01  -2.483439202406542E-01
  -2.546201800480412E-01  -2.610540620991925E-01  -2.676509053477065E-01
  -2.744139402921131E-01  -2.813477326594355E-01  -2.884559009167477E-01
  -2.957437444512863E-01  -3.032150534080397E-01  -3.108749463352415E-01
  -3.187276886714726E-01  -3.267785725146318E-01  -3.350322914085663E-01
  -3.434938210758185E-01  -3.521686188779654E-01  -3.610621908939708E-01
  -3.701793724905335E-01  -3.795266626359784E-01  -3.891088505222209E-01
  -3.989328053789957E-01  -4.090037428348023E-01  -4.193280822111979E-01
  -4.299127482450278E-01  -4.407633838278789E-01  -4.518872228118390E-01
  -4.632907360655795E-01  -4.749812580588562E-01  -4.869658805444970E-01
  -4.992514383512909E-01  -5.118463664137577E-01  -5.247573869937499E-01
  -5.379934498844953E-01  -5.515615232401736E-01  -5.654710224763644E-01
  -5.797292551019346E-01  -5.943460290807692E-01  -6.093297412052043E-01
  -6.246893844533227E-01  -6.404345100110266E-01  -6.565749187736102E-01
  -6.731198950841289E-01  -6.900800333575019E-01  -7.074655039223647E-01
  -7.252863156146406E-01  -7.435542213791123E-01  -7.622795908081054E-01
  -7.814739366945131E-01  -8.011490879558117E-01  -8.213165388813500E-01
  -8.419889209694970E-01  -8.631783943571631E-01  -8.848978391237159E-01
  -9.071603926552484E-01  -9.299793172770868E-01  -9.533685626580181E-01
  -9.773419118736837E-01  -1.001913899843531E+00  -1.027099298456653E+00
  -1.052913059975850E+00  -1.079370671938206E+00  -1.106488068205414E+00
  -1.134281220171005E+00  -1.162766724086581E+00  -1.191961782117351E+00
  -1.221883436331838E+00  -1.252549617409315E+00  -1.283978448131408E+00
  -1.316188591140208E+00  -1.349199008308040E+00  -1.383029310620665E+00
  -1.417699226414808E+00  -1.453229455341450E+00  -1.489640475001401E+00
  -1.526954121593129E+00  -1.565191807431691E+00  -1.604376182837590E+00
  -1.644529918757725E+00  -1.685676539024979E+00  -1.727839819272892E+00
  -1.771044404111295E+00  -1.815315125326958E+00  -1.860677641749273E+00
  -1.907158168021553E+00  -1.954783298907362E+00  -2.003580492126543E+00
  -2.053577616146358E+00  -2.104803302462525E+00  -2.157286685772381E+00
  -2.211057535187662E+00  -2.266146560378083E+00  -2.322584609484120E+00
  -2.380403727579901E+00  -2.439636301959563E+00  -2.500315601668671E+00
  -2.562475487421508E+00  -2.626150630744687E+00  -2.691376321734166E+00
  -2.758188752472545E+00  -2.826624682623673E+00  -2.896721768034630E+00
  -2.968518397516219E+00  -3.042053702223457E+00  -3.117367696569378E+00
  -3.194501057288352E+00  -3.273495476681687E+00  -3.354393171390125E+00
  -3.437237584350680E+00  -3.522072588462623E+00  -3.608943176844656E+00
  -3.697895146539750E+00  -3.788974980007894E+00  -3.882230356938986E+00
  -3.977709463244715E+00  -4.075461636603646E+00  -4.175536988544681E+00
  -4.277986486738478E+00  -4.382862043224572E+00  -4.490216481865200E+00
  -4.600103356957394E+00  -4.712577407486068E+00  -4.827693865175835E+00
  -4.945509276432621E+00  -5.066080695915663E+00  -5.189466253449821E+00
  -5.315724924037150E+00  -5.444916491227502E+00  -5.577101569435760E+00
  -5.712341690291137E+00  -5.850699095545723E+00  -5.992236900225071E+00
  -6.137018954231581E+00  -6.285109866925660E+00  -6.436574985543381E+00
  -6.591480341921828E+00  -6.749892637165050E+00  -6.911879180849558E+00
  -7.077507923343914E+00  -7.246847296080052E+00  -7.419966277400091E+00
  -7.596934249827777E+00  -7.777821018908277E+00  -7.962696696209759E+00
  -8.151631662975552E+00  -8.344696464295707E+00  -8.541961787772848E+00
  -8.743498286184575E+00  -8.949376621415000E+00  -9.159667180427718E+00
  -9.374440181061237E+00  -9.593765339120170E+00  -9.817711943036686E+00
  -1.004634855347465E+01  -1.027974300171364E+01  -1.051796208604235E+01
  -1.076107159342740E+01  -1.100913591599489E+01  -1.126221803674277E+01
  -1.152037922455588E+01  -1.178367888028845E+01  -1.205217422023679E+01
  -1.232592015049588E+01  -1.260496893304669E+01  -1.288936987671829E+01
  -1.317916913022034E+01  -1.347440928338980E+01  -1.377512910117503E+01
  -1.408136310500984E+01  -1.439314121651885E+01  -1.471048838226016E+01
  -1.503342411371390E+01  -1.536196201934790E+01  -1.569610939081912E+01
  -1.603586659862291E+01  -1.638122664612014E+01  -1.673217451118174E+01
  -1.708868661116532E+01  -1.745073014022879E+01  -1.781826235417607E+01
  -1.819122992651215E+01  -1.856956811943418E+01  -1.895320005935574E+01
  -1.934203582945544E+01  -1.973597165534671E+01  -2.013488890093667E+01
  -2.053865314883529E+01  -2.094711314907781E+01  -2.136009970867606E+01
  -2.177742463273302E+01  -2.219887942513146E+01  -2.262423415497030E+01
  -2.305323606878116E+01  -2.348560825921327E+01  -2.392104825418131E+01
  -2.435922649541669E+01  -2.479978484937954E+01  -2.524233490305579E+01
  -2.568645641581551E+01  -2.613169549621925E+01  -2.657756285874428E+01
  -2.702353195526565E+01  -2.746903707185026E+01  -2.791347138512663E+01
  -2.835618494299325E+01  -2.879648261431172E+01  -2.923362199080137E+01
  -2.966681129359543E+01  -3.009520717826866E+01  -3.051791260331024E+01
  -3.093397465477524E+01  -3.134238238688668E+01  -3.174206467404977E+01
  -3.213188811136102E+01  -3.251065501116530E+01  -3.287710136820704E+01
  -3.322989507519624E+01  -3.356763413450828E+01  -3.388884507715510E+01
  -3.419198166031766E+01  -3.447542358037498E+01  -3.473747567293836E+01
  -3.497636728578427E+01  -3.519025204212403E+01  -3.537720802527092E+01
  -3.553523841146076E+01  -3.566227260702995E+01  -3.575616802442916E+01
  -3.581471242278317E+01  -3.583562708867642E+01  -3.581657072364473E+01
  -3.575514425685348E+01  -3.564889665867432E+01  -3.549533175774313E+01
  -3.529191625926728E+01  -3.503608900402814E+01  -3.472527153141564E+01
  -3.435688016045495E+01  -3.392833955725177E+01  -3.343709797963307E+01
  -3.288064420369622E+01  -3.225652635226521E+01  -3.156237255749240E+01
  -3.079591365650606E+01  -2.995500792095132E+01  -2.903766786457956E+01
  -2.804208924235442E+01  -2.696668210571610E+01  -2.581010409822781E+01
  -2.457129580878461E+01  -2.324951810448417E+01  -2.184439153963442E+01
  -2.035593739982772E+01  -1.878462043176373E+01  -1.713139293539680E+01
  -1.539773984994611E+01  -1.358572461894664E+01  -1.169803530564366E+01
  -9.738030437824023E+00  -7.709784154974500E+00  -5.618129782605649E+00
  -3.468701293181766E+00  -1.267971646145554E+00   9.767128236329086E-01
   3.257103091317390E+00   5.564024259839925E+00   7.887359901824937E+00
   1.021604510996161E+01   1.253806990147172E+01   1.484049440703023E+01
   1.710947762137221E+01   1.933032139533987E+01   2.148753158237650E+01
   2.356489820796605E+01   2.554559661639001E+01   2.741231159168819E+01
   2.914738639453753E+01   3.073299861807743E+01   3.215136464810115E+01
   3.338497433014032E+01   3.441685721201793E+01   3.523088127053586E+01
   3.581208467166647E+01   3.614704027839474E+01   3.622425190078803E+01
   3.603458011864717E+01   3.557169403590427E+01   3.483254369756369E+01
   3.381784548155736E+01   3.253257008910012E+01   3.098641926638336E+01
   2.919427289869219E+01   2.717658286884100E+01   2.495968308102789E+01
   2.257597683868046E+01   2.006395204564126E+01   1.746796169665161E+01
   1.483769069915603E+01   1.222720957347880E+01   9.693490046479980E+00
   7.294225592722157E+00   5.084760223979824E+00   3.113879464692499E+00
   1.418156099715105E+00   2.603886922314125E-02  -1.003651600407230E+00
  -1.598686493543391E+00  -1.685198234810757E+00  -1.161768553277361E+00
  -1.556360964704411E-01   1.665324336846484E-02  -3.767861134340968E-04
   1.363423277750356E-03   1.243173414580531E-03   1.308021143096057E-03
   1.355311389387822E-03   1.405292795986168E-03   1.456117717474344E-03
   1.508136957035555E-03   1.561490498144389E-03   1.616346516498998E-03
   1.672881054836102E-03   1.731279119299152E-03   1.791736473929988E-03
   1.854461357999181E-03   1.919673719294886E-03   1.987609017071661E-03
   2.058515828348851E-03   2.132660090771550E-03   2.210323053175470E-03
   2.291803018089070E-03   2.377417297643232E-03   2.467499794288186E-03
   2.562404838955625E-03   2.662505746327212E-03   2.768195427526768E-03
   2.879889983259711E-03   2.998026024903606E-03   3.123065641823298E-03
   0.000000000000000E+00   0.000000000000000E+00   0.000000000000000E+00
   0.000000000000000E+00   0.000000000000000E+00   0.000000000000000E+00
   0.000000000000000E+00   0.000000000000000E+00   0.000000000000000E+00
   0.000000000000000E+00   0.000000000000000E+00   0.000000000000000E+00
   0.000000000000000E+00   0.000000000000000E+00   0.000000000000000E+00
   0.000000000000000E+00   0.000000000000000E+00   0.000000000000000E+00
   0.000000000000000E+00   0.000000000000000E+00   0.000000000000000E+00
   0.000000000000000E+00   0.000000000000000E+00   0.000000000000000E+00
   0.000000000000000E+00   0.000000000000000E+00   0.000000000000000E+00
   0.000000000000000E+00   0.000000000000000E+00   0.000000000000000E+00
   0.000000000000000E+00   0.000000000000000E+00   0.000000000000000E+00
   0.000000000000000E+00   0.000000000000000E+00   0.000000000000000E+00
   0.000000000000000E+00   0.000000000000000E+00   0.000000000000000E+00
   0.000000000000000E+00   0.000000000000000E+00   0.000000000000000E+00
   0.000000000000000E+00   0.000000000000000E+00   0.000000000000000E+00
   0.000000000000000E+00   0.000000000000000E+00   0.000000000000000E+00
   0.000000000000000E+00   0.000000000000000E+00   0.000000000000000E+00
   0.000000000000000E+00   0.000000000000000E+00   0.000000000000000E+00
   0.000000000000000E+00   0.000000000000000E+00   0.000000000000000E+00
   0.000000000000000E+00   0.000000000000000E+00   0.000000000000000E+00
   0.000000000000000E+00   0.000000000000000E+00   0.000000000000000E+00
   0.000000000000000E+00   0.000000000000000E+00   0.000000000000000E+00
   0.000000000000000E+00   0.000000000000000E+00   0.000000000000000E+00
   0.000000000000000E+00   0.000000000000000E+00   0.000000000000000E+00
   0.000000000000000E+00   0.000000000000000E+00   0.000000000000000E+00
   0.000000000000000E+00   0.000000000000000E+00   0.000000000000000E+00
   0.000000000000000E+00   0.000000000000000E+00   0.000000000000000E+00
   0.000000000000000E+00   0.000000000000000E+00   0.000000000000000E+00
   0.000000000000000E+00   0.000000000000000E+00   0.000000000000000E+00
   0.000000000000000E+00   0.000000000000000E+00   0.000000000000000E+00
   0.000000000000000E+00   0.000000000000000E+00   0.000000000000000E+00
   0.000000000000000E+00   0.000000000000000E+00   0.000000000000000E+00
   0.000000000000000E+00   0.000000000000000E+00   0.000000000000000E+00
   0.000000000000000E+00   0.000000000000000E+00   0.000000000000000E+00
   0.000000000000000E+00   0.000000000000000E+00   0.000000000000000E+00
   0.000000000000000E+00   0.000000000000000E+00   0.000000000000000E+00
   0.000000000000000E+00   0.000000000000000E+00   0.000000000000000E+00
   0.000000000000000E+00   0.000000000000000E+00   0.000000000000000E+00
   0.000000000000000E+00   0.000000000000000E+00   0.000000000000000E+00
   0.000000000000000E+00   0.000000000000000E+00   0.000000000000000E+00
   0.000000000000000E+00   0.000000000000000E+00   0.000000000000000E+00
   0.000000000000000E+00   0.000000000000000E+00   0.000000000000000E+00
   0.000000000000000E+00   0.000000000000000E+00   0.000000000000000E+00
   0.000000000000000E+00   0.000000000000000E+00   0.000000000000000E+00
   0.000000000000000E+00   0.000000000000000E+00   0.000000000000000E+00
   0.000000000000000E+00   0.000000000000000E+00   0.000000000000000E+00
   0.000000000000000E+00   0.000000000000000E+00   0.000000000000000E+00
   0.000000000000000E+00   0.000000000000000E+00   0.000000000000000E+00
   0.000000000000000E+00   0.000000000000000E+00   0.000000000000000E+00
   0.000000000000000E+00   0.000000000000000E+00   0.000000000000000E+00
   0.000000000000000E+00   0.000000000000000E+00   0.000000000000000E+00
   0.000000000000000E+00   0.000000000000000E+00   0.000000000000000E+00
   0.000000000000000E+00   0.000000000000000E+00   0.000000000000000E+00
   0.000000000000000E+00   0.000000000000000E+00   0.000000000000000E+00
   0.000000000000000E+00   0.000000000000000E+00   0.000000000000000E+00
   0.000000000000000E+00   0.000000000000000E+00   0.000000000000000E+00
   0.000000000000000E+00   0.000000000000000E+00   0.000000000000000E+00
   0.000000000000000E+00   0.000000000000000E+00   0.000000000000000E+00
   0.000000000000000E+00   0.000000000000000E+00   0.000000000000000E+00
   0.000000000000000E+00   0.000000000000000E+00   0.000000000000000E+00
   0.000000000000000E+00   0.000000000000000E+00   0.000000000000000E+00
   0.000000000000000E+00   0.000000000000000E+00   0.000000000000000E+00
   0.000000000000000E+00   0.000000000000000E+00   0.000000000000000E+00
   0.000000000000000E+00   0.000000000000000E+00   0.000000000000000E+00
   0.000000000000000E+00   0.000000000000000E+00   0.000000000000000E+00
   0.000000000000000E+00   0.000000000000000E+00   0.000000000000000E+00
   0.000000000000000E+00   0.000000000000000E+00   0.000000000000000E+00
   0.000000000000000E+00   0.000000000000000E+00   0.000000000000000E+00
   0.000000000000000E+00   0.000000000000000E+00   0.000000000000000E+00
   0.000000000000000E+00   0.000000000000000E+00   0.000000000000000E+00
   0.000000000000000E+00   0.000000000000000E+00   0.000000000000000E+00
   0.000000000000000E+00   0.000000000000000E+00   0.000000000000000E+00
   0.000000000000000E+00   0.000000000000000E+00   0.000000000000000E+00
   0.000000000000000E+00   0.000000000000000E+00   0.000000000000000E+00
   0.000000000000000E+00   0.000000000000000E+00   0.000000000000000E+00
   0.000000000000000E+00   0.000000000000000E+00   0.000000000000000E+00
   0.000000000000000E+00   0.000000000000000E+00   0.000000000000000E+00
   0.000000000000000E+00   0.000000000000000E+00   0.000000000000000E+00
   0.000000000000000E+00   0.000000000000000E+00   0.000000000000000E+00
   0.000000000000000E+00   0.000000000000000E+00   0.000000000000000E+00
   0.000000000000000E+00   0.000000000000000E+00   0.000000000000000E+00
   0.000000000000000E+00   0.000000000000000E+00   0.000000000000000E+00
   0.000000000000000E+00   0.000000000000000E+00   0.000000000000000E+00
   0.000000000000000E+00   0.000000000000000E+00   0.000000000000000E+00
   0.000000000000000E+00   0.000000000000000E+00   0.000000000000000E+00
   0.000000000000000E+00   0.000000000000000E+00   0.000000000000000E+00
   0.000000000000000E+00   0.000000000000000E+00   0.000000000000000E+00
   0.000000000000000E+00   0.000000000000000E+00   0.000000000000000E+00
   0.000000000000000E+00   0.000000000000000E+00   0.000000000000000E+00
   0.000000000000000E+00   0.000000000000000E+00   0.000000000000000E+00
   0.000000000000000E+00   0.000000000000000E+00   0.000000000000000E+00
   0.000000000000000E+00   0.000000000000000E+00   0.000000000000000E+00
   0.000000000000000E+00   0.000000000000000E+00   0.000000000000000E+00
   0.000000000000000E+00   0.000000000000000E+00   0.000000000000000E+00
   0.000000000000000E+00   0.000000000000000E+00   0.000000000000000E+00
   0.000000000000000E+00   0.000000000000000E+00   0.000000000000000E+00
   0.000000000000000E+00   0.000000000000000E+00   0.000000000000000E+00
   0.000000000000000E+00   0.000000000000000E+00   0.000000000000000E+00
   0.000000000000000E+00   0.000000000000000E+00   0.000000000000000E+00
   0.000000000000000E+00   0.000000000000000E+00   0.000000000000000E+00
   0.000000000000000E+00   0.000000000000000E+00   0.000000000000000E+00
   0.000000000000000E+00   0.000000000000000E+00   0.000000000000000E+00
   0.000000000000000E+00   0.000000000000000E+00   0.000000000000000E+00
   0.000000000000000E+00   0.000000000000000E+00   0.000000000000000E+00
   0.000000000000000E+00   0.000000000000000E+00   0.000000000000000E+00
   0.000000000000000E+00   0.000000000000000E+00   0.000000000000000E+00
   0.000000000000000E+00
    </PP_BETA.3>
    <PP_BETA.4 index="4" label="2P" angular_momentum="1" cutoff_radius_index="791" cutoff_radius="0.90000000000000002" ultrasoft_cutoff_radius="1.3000000000000000">
   3.639471066262119E-06   3.731604716123951E-06   3.826070740496596E-06
   3.922928183724983E-06   4.022237584868926E-06   4.124061015541986E-06
   4.228462118708276E-06   4.335506148461412E-06   4.445260010810427E-06
   4.557792305498269E-06   4.673173368878839E-06   4.791475317879547E-06
   4.912772095076741E-06   5.037139514912246E-06   5.164655311079908E-06
   5.295399185111647E-06   5.429452856193567E-06   5.566900112243122E-06
   5.707826862279297E-06   5.852321190118623E-06   6.000473409430378E-06
   6.152376120185640E-06   6.308124266535311E-06   6.467815196153314E-06
   6.631548721082127E-06   6.799427180118543E-06   6.971555502778804E-06
   7.148041274883012E-06   7.328994805799781E-06   7.514529197393274E-06
   7.704760414715522E-06   7.899807358488449E-06   8.099791939420728E-06
   8.304839154405974E-06   8.515077164649969E-06   8.730637375775598E-06
   8.951654519955698E-06   9.178266740125130E-06   9.410615676324662E-06
   9.648846554230709E-06   9.893108275926113E-06   1.014355351296889E-05
   1.040033880181704E-05   1.066362464166891E-05   1.093357559478067E-05
   1.121036038932298E-05   1.149415202484181E-05   1.178512788038881E-05
   1.208346982538917E-05   1.238936433331599E-05   1.270300259824238E-05
   1.302458065434413E-05   1.335429949842755E-05   1.369236521555912E-05
   1.403898910787566E-05   1.439438782665498E-05   1.475878350773025E-05
   1.513240391033227E-05   1.551548255944656E-05   1.590825889177433E-05
   1.631097840538829E-05   1.672389281317719E-05   1.714726020017477E-05
   1.758134518487151E-05   1.802641908461014E-05   1.848276008516786E-05
   1.895065341463189E-05   1.943039152167658E-05   1.992227425835353E-05
   2.042660906750936E-05   2.094371117494761E-05   2.147390378645554E-05
   2.201751828981866E-05   2.257489446194912E-05   2.314638068125791E-05
   2.373233414540289E-05   2.433312109454952E-05   2.494911704028323E-05
   2.558070700031693E-05   2.622828573914012E-05   2.689225801475991E-05
   2.757303883168864E-05   2.827105370033567E-05   2.898673890296588E-05
   2.972054176639101E-05   3.047292094156392E-05   3.124434669025121E-05
   3.203530117896280E-05   3.284627878032246E-05   3.367778638206774E-05
   3.453034370387189E-05   3.540448362218658E-05   3.630075250330804E-05
   3.721971054487461E-05   3.816193212600977E-05   3.912800616632856E-05
   4.011853649403282E-05   4.113414222332469E-05   4.217545814137425E-05
   4.324313510508387E-05   4.433784044789575E-05   4.546025839689899E-05
   4.661109050049514E-05   4.779105606689034E-05   4.900089261368844E-05
   5.024135632886467E-05   5.151322254341018E-05   5.281728621594073E-05
   5.415436242957397E-05   5.552528690138529E-05   5.693091650476004E-05
   5.837212980496996E-05   5.984982760830759E-05   6.136493352512212E-05
   6.291839454710900E-05   6.451118163921309E-05   6.614429034651660E-05
   6.781874141649063E-05   6.953558143699866E-05   7.129588349045212E-05
   7.310074782452495E-05   7.495130253984872E-05   7.684870429511606E-05
   7.879413903003459E-05   8.078882270658268E-05   8.283400206902946E-05
   8.493095542319628E-05   8.708099343544452E-05   8.928545995189036E-05
   9.154573283835874E-05   9.386322484159980E-05   9.623938447230878E-05
   9.867569691049878E-05   1.011736849337940E-04   1.037349098692236E-04
   1.063609725691087E-04   1.090535144116565E-04   1.118142183268834E-04
   1.146448098485106E-04   1.175470581924891E-04   1.205227773628264E-04
   1.235738272854098E-04   1.267021149705314E-04   1.299095957048438E-04
   1.331982742734909E-04   1.365702062131761E-04   1.400274990969540E-04
   1.435723138515470E-04   1.472068661080094E-04   1.509334275865865E-04
   1.547543275166288E-04   1.586719540924550E-04   1.626887559660698E-04
   1.668072437776705E-04   1.710299917249005E-04   1.753596391718269E-04
   1.797988922986524E-04   1.843505257931906E-04   1.890173845851605E-04
   1.938023856243882E-04   1.987085197040213E-04   2.037388533299031E-04
   2.088965306372688E-04   2.141847753559639E-04   2.196068928254174E-04
   2.251662720606172E-04   2.308663878703984E-04   2.367108030293468E-04
   2.427031705046927E-04   2.488472357395796E-04   2.551468389941293E-04
   2.616059177457838E-04   2.682285091504034E-04   2.750187525656752E-04
   2.819808921384053E-04   2.891192794573008E-04   2.964383762729261E-04
   3.039427572864994E-04   3.116371130093019E-04   3.195262526944742E-04
   3.276151073430257E-04   3.359087327859587E-04   3.444123128444043E-04
   3.531311625697706E-04   3.620707315659174E-04   3.712366073954263E-04
   3.806345190721214E-04   3.902703406419895E-04   4.001500948547657E-04
   4.102799569284700E-04   4.206662584092368E-04   4.313154911288791E-04
   4.422343112626248E-04   4.534295434895906E-04   4.649081852585860E-04
   4.766774111618969E-04   4.887445774198200E-04   5.011172264787091E-04
   5.138030917254380E-04   5.268101023212208E-04   5.401463881577902E-04
   5.538202849390753E-04   5.678403393915047E-04   5.822153146062333E-04
   5.969541955166140E-04   6.120661945143282E-04   6.275607572077228E-04
   6.434475683259046E-04   6.597365577723216E-04   6.764379068316066E-04
   6.935620545335357E-04   7.111197041781377E-04   7.291218300259680E-04
   7.475796841577763E-04   7.665048035078455E-04   7.859090170753733E-04
   8.058044533184589E-04   8.262035477352520E-04   8.463839849356993E-04
   8.677968590816616E-04   8.898117395941740E-04   9.123467251472068E-04
   9.354579595079898E-04   9.591907397541947E-04   9.834514188363911E-04
   1.008404186267536E-03   1.033945938704391E-03   1.060132457531184E-03
   1.087011014267517E-03   1.114520266835432E-03   1.142781533208016E-03
   1.171723837825651E-03   1.201405739736130E-03   1.231862074097477E-03
   1.263039860768475E-03   1.295051892021708E-03   1.327846831070881E-03
   1.361487853069255E-03   1.396002378599539E-03   1.431317123244913E-03
   1.467620736424808E-03   1.504770343162603E-03   1.542890525121978E-03
   1.581978157875803E-03   1.622045975563563E-03   1.663138004647767E-03
   1.705264492927282E-03   1.748444341117595E-03   1.792744161176635E-03
   1.838145353463269E-03   1.884715479402602E-03   1.932451069107358E-03
   1.981387026363151E-03   2.031587017543464E-03   2.083024514894177E-03
   2.135794259686405E-03   2.189883395199520E-03   2.245347560135987E-03
   2.302230180661973E-03   2.360513741291939E-03   2.420326941000047E-03
   2.481606262800327E-03   2.544462217282628E-03   2.608911245311953E-03
   2.674974846265080E-03   2.742740401380922E-03   2.812197956665219E-03
   2.883672584545735E-03   2.956680325520284E-03   3.031521959993027E-03
   3.108271907830537E-03   3.186963027637387E-03   3.267621854640444E-03
   3.350356385882364E-03   3.435166588805281E-03   3.522119052818243E-03
   3.611282115215994E-03   3.702707035061637E-03   3.796435759513844E-03
   3.892540434777034E-03   3.991091285381766E-03   4.092121023569691E-03
   4.195711153854949E-03   4.301921869672540E-03   4.410830090782587E-03
   4.522480272437775E-03   4.636977159680318E-03   4.754362105073389E-03
   4.874706455900423E-03   4.998108942980001E-03   5.124646020650646E-03
   5.254369954986231E-03   5.387385260326560E-03   5.523769420053953E-03
   5.663603071797857E-03   5.806966369186177E-03   5.953968116509442E-03
   6.104691178679809E-03   6.259231604471729E-03   6.417686863587170E-03
   6.580142298125374E-03   6.746712886845646E-03   6.917515089968256E-03
   7.092613527651531E-03   7.272173531194396E-03   7.456263532643550E-03
   7.645008544919573E-03   7.838538988175483E-03   8.036973178205712E-03
   8.240422317618424E-03   8.449020671787127E-03   8.662909329609296E-03
   8.882200348943731E-03   9.107053710451765E-03   9.337596202945938E-03
   9.573968772611727E-03   9.816320178540274E-03   1.006481910914257E-02
   1.031959518821135E-02   1.058084026666520E-02   1.084867478102967E-02
   1.112331083563226E-02   1.140487313128079E-02   1.169358959014673E-02
   1.198959796126618E-02   1.229309682104525E-02   1.260429102352580E-02
   1.292335465703911E-02   1.325049402253739E-02   1.358592370204502E-02
   1.392983476734607E-02   1.428245872004096E-02   1.464399046290073E-02
   1.501469908745472E-02   1.539477199468965E-02   1.578446875988074E-02
   1.618403537728530E-02   1.659371340851711E-02   1.701376161264773E-02
   1.744444054312412E-02   1.788601460423350E-02   1.833878095432081E-02
   1.880299250388399E-02   1.927897715166015E-02   1.976698132100677E-02
   2.026735439737166E-02   2.078038298959855E-02   2.130640386310393E-02
   2.184574244252903E-02   2.239872069871049E-02   2.296570453196664E-02
   2.354702830254003E-02   2.414308935580395E-02   2.475421921802106E-02
   2.538081241993707E-02   2.602328843467784E-02   2.668200448837394E-02
   2.735740302377623E-02   2.804987510815192E-02   2.875990117542163E-02
   2.948788740705334E-02   3.023428824311607E-02   3.099960634717907E-02
   3.178426477919839E-02   3.258880868360341E-02   3.341370124217188E-02
   3.425947470863843E-02   3.512664151121275E-02   3.601577314791717E-02
   3.692739591462581E-02   3.786209371882341E-02   3.882044817053788E-02
   3.980305860120113E-02   4.081052850691611E-02   4.184352309061328E-02
   4.290262377016975E-02   4.398854449902410E-02   4.510193822062439E-02
   4.624352737384461E-02   4.741398452413639E-02   4.861408252290685E-02
   4.984453114273086E-02   5.110613413666586E-02   5.239965869800178E-02
   5.372590797002415E-02   5.508575791418385E-02   5.647979067224965E-02
   5.790981212282761E-02   5.937481192384204E-02   6.087817975951476E-02
   6.241832761517933E-02   6.399880154979548E-02   6.561864817135522E-02
   6.727880625543997E-02   6.898085294067217E-02   7.072866577983430E-02
   7.251726774420070E-02   7.435322062363958E-02   7.623452061031077E-02
   7.816392404380675E-02   8.014268593273409E-02   8.217008807853592E-02
   8.425028951503141E-02   8.638214505264195E-02   8.856804776316939E-02
   9.081053364633332E-02   9.310716053710688E-02   9.546385772278845E-02
   9.788087785218919E-02   1.003557565677313E-01   1.028971941581466E-01
   1.055007049468273E-01   1.081694512127498E-01   1.109079228356077E-01
   1.137141423498464E-01   1.165910544430440E-01   1.195423439738411E-01
   1.225662645062725E-01   1.256684231873098E-01   1.288480965225459E-01
   1.321077650435799E-01   1.354518717437977E-01   1.388779820907951E-01
   1.423923950953204E-01   1.459954190902293E-01   1.496889195650661E-01
   1.534766916980826E-01   1.573596346536291E-01   1.613410720591067E-01
   1.654230124099424E-01   1.696083758404517E-01   1.738993747574954E-01
   1.782985744305012E-01   1.828098972964237E-01   1.874343739504434E-01
   1.921764642311197E-01   1.970373018523199E-01   2.020227849900188E-01
   2.071324975385668E-01   2.123735148114888E-01   2.177437306685160E-01
   2.232532938370042E-01   2.288998698658841E-01   2.346891926002339E-01
   2.406260472021315E-01   2.467129005556564E-01   2.529521258740713E-01
   2.593493022206328E-01   2.659097922962144E-01   2.726340943953148E-01
   2.795293302861057E-01   2.865995751533320E-01   2.938456678837281E-01
   3.012777169295758E-01   3.088966443471092E-01   3.167068019116510E-01
   3.247159990661688E-01   3.329263185105004E-01   3.413442765702623E-01
   3.499743456757118E-01   3.588239865223024E-01   3.678956958749705E-01
   3.771966453967187E-01   3.867319368854236E-01   3.965094637423062E-01
   4.065322575620335E-01   4.168090371773289E-01   4.273452199684004E-01
   4.381458331788234E-01   4.492211177083512E-01   4.605740749168518E-01
   4.722153952203433E-01   4.841484282096519E-01   4.963838672790400E-01
   5.089279941225261E-01   5.217871173051519E-01   5.349719049055566E-01
   5.484888162383567E-01   5.623469651811238E-01   5.765535856486333E-01
   5.911192676638817E-01   6.060515756700539E-01   6.213607423984152E-01
   6.370552886050839E-01   6.531457840452655E-01   6.696416051147713E-01
   6.865526967003213E-01   7.038899527928570E-01   7.216643839710430E-01
   7.398856372809863E-01   7.585667034368982E-01   7.777171486135952E-01
   7.973506876711223E-01   8.174777486945655E-01   8.381111432085711E-01
   8.592647162923921E-01   8.809497244385684E-01   9.031806292862082E-01
   9.259703451813173E-01   9.493335275780634E-01   9.732843390986883E-01
   9.978364286081968E-01   1.023006643107286E+00   1.048808409239213E+00
   1.075259598486084E+00   1.102374127789592E+00   1.130170801738831E+00
   1.158664206197846E+00   1.187873934304490E+00   1.217816752532625E+00
   1.248510612466687E+00   1.279974591340475E+00   1.312228257412250E+00
   1.345290145999435E+00   1.379181412847601E+00   1.413922364695462E+00
   1.449532977732669E+00   1.486036724396034E+00   1.523454300780680E+00
   1.561808692768015E+00   1.601123513363104E+00   1.641421706468525E+00
   1.682728489682424E+00   1.725068131354694E+00   1.768466343721472E+00
   1.812949346928034E+00   1.858543611358318E+00   1.905276977435060E+00
   1.953176953948336E+00   2.002272545826371E+00   2.052593233479961E+00
   2.104168853862289E+00   2.157030311312627E+00   2.211209400964603E+00
   2.266737988500043E+00   2.323649186564730E+00   2.381977319314253E+00
   2.441756381885822E+00   2.503022148123494E+00   2.565810768079373E+00
   2.630159472469743E+00   2.696106081632806E+00   2.763689713755896E+00
   2.832949714949524E+00   2.903927370198582E+00   2.976663516789119E+00
   3.051201702917687E+00   3.127584624459754E+00   3.205857448690805E+00
   3.286065377022163E+00   3.368255313528987E+00   3.452474657441924E+00
   3.538772542016410E+00   3.627198467186550E+00   3.717803580930668E+00
   3.810640136773733E+00   3.905761139225720E+00   4.003221315666228E+00
   4.103076201972374E+00   4.205382858207308E+00   4.310199337790500E+00
   4.417584957170874E+00   4.527600907440433E+00   4.640308641452379E+00
   4.755772004895046E+00   4.874055511683390E+00   4.995225434377993E+00
   5.119349216268655E+00   5.246495912951908E+00   5.376735807257558E+00
   5.510140974012566E+00   5.646784613812730E+00   5.786741706444296E+00
   5.930088688514067E+00   6.076903466906044E+00   6.227265705011706E+00
   6.381256378214399E+00   6.538958479707992E+00   6.700456039680735E+00
   6.865835528076068E+00   7.035184260998952E+00   7.208591782692101E+00
   7.386149232396181E+00   7.567949105136647E+00   7.754086279960759E+00
   7.944656632119213E+00   8.139758329792487E+00   8.339491074255148E+00
   8.543956266957244E+00   8.753257184761537E+00   8.967498917322132E+00
   9.186788001290045E+00   9.411233333726996E+00   9.640944784118325E+00
   9.876034843163207E+00   1.011661700733619E+01   1.036280691642103E+01
   1.061472189297589E+01   1.087248087066255E+01   1.113620444049932E+01
   1.140601502528706E+01   1.168203646707942E+01   1.196439435552796E+01
   1.225321575356934E+01   1.254862924865245E+01   1.285076491315083E+01
   1.315975420015128E+01   1.347572991745319E+01   1.379882610776558E+01
   1.412917812017960E+01   1.446692229291355E+01   1.481219609215395E+01
   1.516513783022008E+01   1.552588671100399E+01   1.589458260162460E+01
   1.627136596730023E+01   1.665637766780140E+01   1.704975892248977E+01
   1.745165096646868E+01   1.786219514689625E+01   1.828153236679234E+01
   1.870980330883773E+01   1.914714778126063E+01   1.959370488192144E+01
   2.004961241190384E+01   2.051500688876209E+01   2.099002295637949E+01
   2.147479344703924E+01   2.196944863404330E+01   2.247411622559147E+01
   2.298892077631961E+01   2.351398340586717E+01   2.404942119054927E+01
   2.459534694205888E+01   2.515186856794302E+01   2.571908848734789E+01
   2.629710325050971E+01   2.688600277797906E+01   2.748586986757177E+01
   2.809677939828290E+01   2.871879766141730E+01   2.935198165769715E+01
   2.999637822424754E+01   3.065202315302809E+01   3.131894041771479E+01
   3.199714102133426E+01   3.268662216902184E+01   3.338736601165751E+01
   3.409933864687114E+01   3.482248886335457E+01   3.555674678379630E+01
   3.630202265783753E+01   3.705820528176739E+01   3.782516063727580E+01
   3.860273016347539E+01   3.939072921877206E+01   4.018894516989803E+01
   4.099713564753918E+01   4.181502654765152E+01   4.264230991278850E+01
   4.347864192060768E+01   4.432364039530025E+01   4.517688264937891E+01
   4.603790282200620E+01   4.690618932892419E+01   4.778118215407709E+01
   4.866226992227870E+01   4.954878703185106E+01   5.044001035942547E+01
   5.133515627203462E+01   5.223337708511467E+01   5.313375767890929E+01
   5.403531185365750E+01   5.493697861252042E+01   5.583761835283774E+01
   5.673600889370300E+01   5.763084143468383E+01   5.852071639681122E+01
   5.940413926417596E+01   6.027951619788399E+01   6.114514975779834E+01
   6.199923451376080E+01   6.283985265812650E+01   6.366496961544199E+01
   6.447242971265418E+01   6.525995200571739E+01   6.602512600412669E+01
   6.676540785032890E+01   6.747811644557953E+01   6.816042993706986E+01
   6.880938270624583E+01   6.942186232931431E+01   6.999460744512564E+01
   7.052420590294791E+01   7.100709361564822E+01   7.143955418014285E+01
   7.181771931404096E+01   7.213757021408864E+01   7.239494010781686E+01
   7.258551784060194E+01   7.270485305116163E+01   7.274836266574884E+01
   7.271133914431184E+01   7.258896063426565E+01   7.237630303222986E+01
   7.206835435548936E+01   7.166003150251052E+01   7.114619953316281E+01
   7.052169390469587E+01   6.978134560524063E+01   6.892000957698610E+01
   6.793259645073803E+01   6.681410804300199E+01   6.555967649921726E+01
   6.416460749678146E+01   6.262442753178868E+01   6.093493540208613E+01
   5.909225813932085E+01   5.709291114901282E+01   5.493386296073197E+01
   5.261260425619793E+01   5.012722105981373E+01   4.747647232429011E+01
   4.465987107353504E+01   4.167776924977238E+01   3.853144566699740E+01
   3.522319638255237E+01   3.175642710956743E+01   2.813574666356794E+01
   2.436706045447806E+01   2.045766322055749E+01   1.641632930366075E+01
   1.225339943350286E+01   7.980862048591234E+00   3.612427533546565E+00
  -8.364068387705856E-01  -5.348303349456387E+00  -9.904044425704797E+00
  -1.448250974310326E+01  -1.906067313279095E+01  -2.361362216991802E+01
  -2.811460403186493E+01  -3.253510103261158E+01  -3.684493972967346E+01
  -4.101243742937709E+01  -4.500459011217367E+01  -4.878730591166425E+01
  -5.232568819563005E+01  -5.558437225309979E+01  -5.852791938481414E+01
  -6.112127186396197E+01  -6.333027180189538E+01  -6.512224606548136E+01
  -6.646665871605114E+01  -6.733583079922346E+01  -6.770572591310986E+01
  -6.755679768454388E+01  -6.687489236330453E+01  -6.565219651295592E+01
  -6.388821494444659E+01  -6.159075866454884E+01  -5.877691561468731E+01
  -5.547396795672108E+01  -5.172020911846096E+01  -4.756559974911522E+01
  -4.307218521406014E+01  -3.831417569048421E+01  -3.337756375616891E+01
  -2.835912132839522E+01  -2.336457658334896E+01  -1.850572015767222E+01
  -1.389612568568448E+01  -9.645089840423339E+00  -5.849297854671683E+00
  -2.581597218925396E+00   1.010697004018581E-01   2.081760472346645E+00
   3.216783071991275E+00   3.358877694101403E+00   2.305877901333112E+00
   3.081172395584356E-01  -3.310219758997613E-02   6.311879832749806E-04
  -2.810794564206662E-03  -2.568380423997797E-03  -2.692860159312106E-03
  -2.782867835193035E-03  -2.878505484877703E-03  -2.976112629456554E-03
  -3.076382900030202E-03  -3.179592415484396E-03  -3.286073175106641E-03
  -3.396172889904611E-03  -3.510257162169069E-03  -3.628713092954262E-03
  -3.751952744346935E-03  -3.880411629648396E-03  -4.014556340743817E-03
  -4.154879785788105E-03  -4.301909699925888E-03  -4.456204570443403E-03
  -4.618357146303686E-03  -4.788998385053604E-03  -4.968792634875217E-03
  -5.158445353456890E-03  -5.358700253100792E-03  -5.570340558710268E-03
  -5.794196263217127E-03  -6.031138785976201E-03  -6.282090987623573E-03
   0.000000000000000E+00   0.000000000000000E+00   0.000000000000000E+00
   0.000000000000000E+00   0.000000000000000E+00   0.000000000000000E+00
   0.000000000000000E+00   0.000000000000000E+00   0.000000000000000E+00
   0.000000000000000E+00   0.000000000000000E+00   0.000000000000000E+00
   0.000000000000000E+00   0.000000000000000E+00   0.000000000000000E+00
   0.000000000000000E+00   0.000000000000000E+00   0.000000000000000E+00
   0.000000000000000E+00   0.000000000000000E+00   0.000000000000000E+00
   0.000000000000000E+00   0.000000000000000E+00   0.000000000000000E+00
   0.000000000000000E+00   0.000000000000000E+00   0.000000000000000E+00
   0.000000000000000E+00   0.000000000000000E+00   0.000000000000000E+00
   0.000000000000000E+00   0.000000000000000E+00   0.000000000000000E+00
   0.000000000000000E+00   0.000000000000000E+00   0.000000000000000E+00
   0.000000000000000E+00   0.000000000000000E+00   0.000000000000000E+00
   0.000000000000000E+00   0.000000000000000E+00   0.000000000000000E+00
   0.000000000000000E+00   0.000000000000000E+00   0.000000000000000E+00
   0.000000000000000E+00   0.000000000000000E+00   0.000000000000000E+00
   0.000000000000000E+00   0.000000000000000E+00   0.000000000000000E+00
   0.000000000000000E+00   0.000000000000000E+00   0.000000000000000E+00
   0.000000000000000E+00   0.000000000000000E+00   0.000000000000000E+00
   0.000000000000000E+00   0.000000000000000E+00   0.000000000000000E+00
   0.000000000000000E+00   0.000000000000000E+00   0.000000000000000E+00
   0.000000000000000E+00   0.000000000000000E+00   0.000000000000000E+00
   0.000000000000000E+00   0.000000000000000E+00   0.000000000000000E+00
   0.000000000000000E+00   0.000000000000000E+00   0.000000000000000E+00
   0.000000000000000E+00   0.000000000000000E+00   0.000000000000000E+00
   0.000000000000000E+00   0.000000000000000E+00   0.000000000000000E+00
   0.000000000000000E+00   0.000000000000000E+00   0.000000000000000E+00
   0.000000000000000E+00   0.000000000000000E+00   0.000000000000000E+00
   0.000000000000000E+00   0.000000000000000E+00   0.000000000000000E+00
   0.000000000000000E+00   0.000000000000000E+00   0.000000000000000E+00
   0.000000000000000E+00   0.000000000000000E+00   0.000000000000000E+00
   0.000000000000000E+00   0.000000000000000E+00   0.000000000000000E+00
   0.000000000000000E+00   0.000000000000000E+00   0.000000000000000E+00
   0.000000000000000E+00   0.000000000000000E+00   0.000000000000000E+00
   0.000000000000000E+00   0.000000000000000E+00   0.000000000000000E+00
   0.000000000000000E+00   0.000000000000000E+00   0.000000000000000E+00
   0.000000000000000E+00   0.000000000000000E+00   0.000000000000000E+00
   0.000000000000000E+00   0.000000000000000E+00   0.000000000000000E+00
   0.000000000000000E+00   0.000000000000000E+00   0.000000000000000E+00
   0.000000000000000E+00   0.000000000000000E+00   0.000000000000000E+00
   0.000000000000000E+00   0.000000000000000E+00   0.000000000000000E+00
   0.000000000000000E+00   0.000000000000000E+00   0.000000000000000E+00
   0.000000000000000E+00   0.000000000000000E+00   0.000000000000000E+00
   0.000000000000000E+00   0.000000000000000E+00   0.000000000000000E+00
   0.000000000000000E+00   0.000000000000000E+00   0.000000000000000E+00
   0.000000000000000E+00   0.000000000000000E+00   0.000000000000000E+00
   0.000000000000000E+00   0.000000000000000E+00   0.000000000000000E+00
   0.000000000000000E+00   0.000000000000000E+00   0.000000000000000E+00
   0.000000000000000E+00   0.000000000000000E+00   0.000000000000000E+00
   0.000000000000000E+00   0.000000000000000E+00   0.000000000000000E+00
   0.000000000000000E+00   0.000000000000000E+00   0.000000000000000E+00
   0.000000000000000E+00   0.000000000000000E+00   0.000000000000000E+00
   0.000000000000000E+00   0.000000000000000E+00   0.000000000000000E+00
   0.000000000000000E+00   0.000000000000000E+00   0.000000000000000E+00
   0.000000000000000E+00   0.000000000000000E+00   0.000000000000000E+00
   0.000000000000000E+00   0.000000000000000E+00   0.000000000000000E+00
   0.000000000000000E+00   0.000000000000000E+00   0.000000000000000E+00
   0.000000000000000E+00   0.000000000000000E+00   0.000000000000000E+00
   0.000000000000000E+00   0.000000000000000E+00   0.000000000000000E+00
   0.000000000000000E+00   0.000000000000000E+00   0.000000000000000E+00
   0.000000000000000E+00   0.000000000000000E+00   0.000000000000000E+00
   0.000000000000000E+00   0.000000000000000E+00   0.000000000000000E+00
   0.000000000000000E+00   0.000000000000000E+00   0.000000000000000E+00
   0.000000000000000E+00   0.000000000000000E+00   0.000000000000000E+00
   0.000000000000000E+00   0.000000000000000E+00   0.000000000000000E+00
   0.000000000000000E+00   0.000000000000000E+00   0.000000000000000E+00
   0.000000000000000E+00   0.000000000000000E+00   0.000000000000000E+00
   0.000000000000000E+00   0.000000000000000E+00   0.000000000000000E+00
   0.000000000000000E+00   0.000000000000000E+00   0.000000000000000E+00
   0.000000000000000E+00   0.000000000000000E+00   0.000000000000000E+00
   0.000000000000000E+00   0.000000000000000E+00   0.000000000000000E+00
   0.000000000000000E+00   0.000000000000000E+00   0.000000000000000E+00
   0.000000000000000E+00   0.000000000000000E+00   0.000000000000000E+00
   0.000000000000000E+00   0.000000000000000E+00   0.000000000000000E+00
   0.000000000000000E+00   0.000000000000000E+00   0.000000000000000E+00
   0.000000000000000E+00   0.000000000000000E+00   0.000000000000000E+00
   0.000000000000000E+00   0.000000000000000E+00   0.000000000000000E+00
   0.000000000000000E+00   0.000000000000000E+00   0.000000000000000E+00
   0.000000000000000E+00   0.000000000000000E+00   0.000000000000000E+00
   0.000000000000000E+00   0.000000000000000E+00   0.000000000000000E+00
   0.000000000000000E+00   0.000000000000000E+00   0.000000000000000E+00
   0.000000000000000E+00   0.000000000000000E+00   0.000000000000000E+00
   0.000000000000000E+00   0.000000000000000E+00   0.000000000000000E+00
   0.000000000000000E+00   0.000000000000000E+00   0.000000000000000E+00
   0.000000000000000E+00   0.000000000000000E+00   0.000000000000000E+00
   0.000000000000000E+00   0.000000000000000E+00   0.000000000000000E+00
   0.000000000000000E+00   0.000000000000000E+00   0.000000000000000E+00
   0.000000000000000E+00   0.000000000000000E+00   0.000000000000000E+00
   0.000000000000000E+00   0.000000000000000E+00   0.000000000000000E+00
   0.000000000000000E+00   0.000000000000000E+00   0.000000000000000E+00
   0.000000000000000E+00   0.000000000000000E+00   0.000000000000000E+00
   0.000000000000000E+00   0.000000000000000E+00   0.000000000000000E+00
   0.000000000000000E+00   0.000000000000000E+00   0.000000000000000E+00
   0.000000000000000E+00   0.000000000000000E+00   0.000000000000000E+00
   0.000000000000000E+00   0.000000000000000E+00   0.000000000000000E+00
   0.000000000000000E+00   0.000000000000000E+00   0.000000000000000E+00
   0.000000000000000E+00   0.000000000000000E+00   0.000000000000000E+00
   0.000000000000000E+00   0.000000000000000E+00   0.000000000000000E+00
   0.000000000000000E+00   0.000000000000000E+00   0.000000000000000E+00
   0.000000000000000E+00   0.000000000000000E+00   0.000000000000000E+00
   0.000000000000000E+00   0.000000000000000E+00   0.000000000000000E+00
   0.000000000000000E+00   0.000000000000000E+00   0.000000000000000E+00
   0.000000000000000E+00   0.000000000000000E+00   0.000000000000000E+00
   0.000000000000000E+00   0.000000000000000E+00   0.000000000000000E+00
   0.000000000000000E+00   0.000000000000000E+00   0.000000000000000E+00
   0.000000000000000E+00   0.000000000000000E+00   0.000000000000000E+00
   0.000000000000000E+00
    </PP_BETA.4>
    <PP_DIJ columns="4" rows="4">
   3.1211068641844690      -0.25481337517351665        0.0000000000000000        0.0000000000000000     
 -0.25481337517351665       -1.4676094896374392        0.0000000000000000        0.0000000000000000     
   0.0000000000000000        0.0000000000000000        5.0551178584478524        2.7975006822858939     
   0.0000000000000000        0.0000000000000000        2.7975006822858939        1.5466177394412552     
    </PP_DIJ>
    <PP_AUGMENTATION q_with_l="true" nqf="0" nqlc="3" shape="PSQ" cutoff_r="-1.0000000000000000" cutoff_r_index="805" augmentation_epsilon="9.9999999999999998E-013" l_max_aug="2">
      <PP_Q size="16">
  0.26202315680420268      -0.15159357783198243        0.0000000000000000        0.0000000000000000     
 -0.15159357783198243      -0.14158432247829675        0.0000000000000000        0.0000000000000000     
   0.0000000000000000        0.0000000000000000       0.51122723059061348       0.27512572918940270     
   0.0000000000000000        0.0000000000000000       0.27512572918940270       0.14812237126690006     
      </PP_Q>
<!--augmentation charge multipoles ( only for PAW) 
multipole array dims = (nbeta,nbeta,2*lmax+1)-->
      <PP_MULTIPOLES nbeta="4" lmax="1">
  0.26202315680420268      -0.15159357783198243        0.0000000000000000        0.0000000000000000     
 -0.15159357783198243      -0.14158432247829675        0.0000000000000000        0.0000000000000000     
   0.0000000000000000        0.0000000000000000       0.51122723059061348       0.27512572918940270     
   0.0000000000000000        0.0000000000000000       0.27512572918940270       0.14812237126690006     
   0.0000000000000000        0.0000000000000000      -0.19591771362939123      -0.10393713074625532     
   0.0000000000000000        0.0000000000000000        3.7356540090063034E-002   1.9272274832045577E-002
 -0.19591771362939123        3.7356540090063034E-002   0.0000000000000000        0.0000000000000000     
 -0.10393713074625532        1.9272274832045577E-002   0.0000000000000000        0.0000000000000000     
   0.0000000000000000        0.0000000000000000        0.0000000000000000        0.0000000000000000     
   0.0000000000000000        0.0000000000000000        0.0000000000000000        0.0000000000000000     
   0.0000000000000000        0.0000000000000000       0.12641584818655166        6.6953732194992635E-002
   0.0000000000000000        0.0000000000000000        6.6953732194992635E-002   3.5481607869276323E-002
      </PP_MULTIPOLES>
      <PP_QIJL.1.1.0 first_index="1" second_index="1" composite_index="1" angular_momentum="0" size="1129">
  -2.177813826628857E-08  -2.232945436249407E-08  -2.289472708705635E-08
  -2.347430975344456E-08  -2.406856461928779E-08  -2.467786311279650E-08
  -2.530258606491641E-08  -2.594312394735908E-08  -2.659987711665813E-08
  -2.727325606440419E-08  -2.796368167381385E-08  -2.867158548279419E-08
  -2.939740995366656E-08  -3.014160874971834E-08  -3.090464701875600E-08
  -3.168700168383544E-08  -3.248916174135302E-08  -3.331162856668235E-08
  -3.415491622754815E-08  -3.501955180533353E-08  -3.590607572452052E-08
  -3.681504209047094E-08  -3.774701903575790E-08  -3.870258907526459E-08
  -3.968234947027265E-08  -4.068691260176677E-08  -4.171690635319018E-08
  -4.277297450288907E-08  -4.385577712649180E-08  -4.496599100947449E-08
  -4.610431007017016E-08  -4.727144579348673E-08  -4.846812767560430E-08
  -4.969510367992988E-08  -5.095314070459475E-08  -5.224302506178598E-08
  -5.356556296921245E-08  -5.492158105401214E-08  -5.631192686941574E-08
  -5.773746942448972E-08  -5.919909972728909E-08  -6.069773134176041E-08
  -6.223430095874265E-08  -6.380976898142260E-08  -6.542512012561144E-08
  -6.708136403521595E-08  -6.877953591329148E-08  -7.052069716906917E-08
  -7.230593608136254E-08  -7.413636847876833E-08  -7.601313843708562E-08
  -7.793741899439069E-08  -7.991041288421330E-08  -8.193335328727296E-08
  -8.400750460224606E-08  -8.613416323604276E-08  -8.831465841409140E-08
  -9.055035301113360E-08  -9.284264440305112E-08  -9.519296534025668E-08
  -9.760278484319306E-08  -1.000736091205024E-07  -1.026069825104383E-07
  -1.052044884461086E-07  -1.078677504451541E-07  -1.105984331244790E-07
  -1.133982432406693E-07  -1.162689307567492E-07  -1.192122899359405E-07
  -1.222301604631123E-07  -1.253244285946159E-07  -1.284970283372304E-07
  -1.317499426569504E-07  -1.350852047183740E-07  -1.385048991554659E-07
  -1.420111633744866E-07  -1.456061888899064E-07  -1.492922226941362E-07
  -1.530715686619321E-07  -1.569465889903516E-07  -1.609197056751592E-07
  -1.649934020246090E-07  -1.691702242115444E-07  -1.734527828647900E-07
  -1.778437547008271E-07  -1.823458841967722E-07  -1.869619853057076E-07
  -1.916949432154324E-07  -1.965477161517340E-07  -2.015233372273099E-07
  -2.066249163374885E-07  -2.118556421039417E-07  -2.172187838675989E-07
  -2.227176937320086E-07  -2.283558086584269E-07  -2.341366526139370E-07
  -2.400638387739494E-07  -2.461410717804527E-07  -2.523721500574291E-07
  -2.587609681848848E-07  -2.653115193329677E-07  -2.720278977577094E-07
  -2.789143013599381E-07  -2.859750343089663E-07  -2.932145097326975E-07
  -3.006372524758200E-07  -3.082479019278281E-07  -3.160512149226228E-07
  -3.240520687115150E-07  -3.322554640114843E-07  -3.406665281305939E-07
  -3.492905181725244E-07  -3.581328243222210E-07  -3.671989732147115E-07
  -3.764946313891977E-07  -3.860256088305779E-07  -3.957978626006168E-07
  -4.058175005610308E-07  -4.160907851908111E-07  -4.266241375001772E-07
  -4.374241410435954E-07  -4.484975460343850E-07  -4.598512735634665E-07
  -4.714924199249011E-07  -4.834282610509194E-07  -4.956662570592026E-07
  -5.082140569152751E-07  -5.210795032129026E-07  -5.342706370754954E-07
  -5.477957031815762E-07  -5.616631549174439E-07  -5.758816596602681E-07
  -5.904601041949010E-07  -6.054076002677989E-07  -6.207334902815230E-07
  -6.364473531333672E-07  -6.525590102017773E-07  -6.690785314842865E-07
  -6.860162418908106E-07  -7.033827276962350E-07  -7.211888431563094E-07
  -7.394457172910088E-07  -7.581647608395761E-07  -7.773576733916025E-07
  -7.970364506985986E-07  -8.172133921706159E-07  -8.379011085626147E-07
  -8.591125298553727E-07  -8.808609133358499E-07  -9.031598518820771E-07
  -9.260232824577150E-07  -9.494654948216173E-07  -9.735011404578207E-07
  -9.981452417315399E-07  -1.023413201276908E-06  -1.049320811622278E-06
  -1.075884265059155E-06  -1.103120163760886E-06  -1.131045530157425E-06
  -1.159677817572682E-06  -1.189034921131062E-06  -1.219135188940036E-06
  -1.249997433555711E-06  -1.281640943738554E-06  -1.314085496506645E-06
  -1.347351369493912E-06  -1.381459353621177E-06  -1.416430766087800E-06
  -1.452287463692126E-06  -1.489051856489028E-06  -1.526746921793015E-06
  -1.565396218535773E-06  -1.605023901986952E-06  -1.645654738847512E-06
  -1.687314122724997E-06  -1.730028090000362E-06  -1.773823336096382E-06
  -1.818727232157620E-06  -1.864767842152531E-06  -1.911973940408290E-06
  -1.960375029589271E-06  -2.010001359130496E-06  -2.060883944137440E-06
  -2.113054584764067E-06  -2.166545886081188E-06  -2.221391278447445E-06
  -2.277625038395819E-06  -2.335282310048476E-06  -2.394399127073478E-06
  -2.455012435197002E-06  -2.517160115285057E-06  -2.580881007009250E-06
  -2.646214933111174E-06  -2.713202724280689E-06  -2.781886244663624E-06
  -2.852308418014643E-06  -2.924513254511860E-06  -2.998545878249646E-06
  -3.074452555426968E-06  -3.152280723248799E-06  -3.232079019558491E-06
  -3.313897313219853E-06  -3.397786735267578E-06  -3.483799710845668E-06
  -3.571989991953678E-06  -3.662412691021131E-06  -3.755124315331236E-06
  -3.850182802315097E-06  -3.947647555738623E-06  -4.047579482804637E-06
  -4.150041032193183E-06  -4.255096233063995E-06  -4.362810735045130E-06
  -4.473251849232888E-06  -4.586488590228561E-06  -4.702591719237961E-06
  -4.821633788260986E-06  -4.943689185398299E-06  -5.068834181303664E-06
  -5.197146976810756E-06  -5.328707751763969E-06  -5.463598715083981E-06
  -5.601904156098763E-06  -5.743710497172409E-06  -5.889106347664344E-06
  -6.038182559252408E-06  -6.191032282654575E-06  -6.347751025784148E-06
  -6.508436713374987E-06  -6.673189748113756E-06  -6.842113073316954E-06
  -7.015312237192279E-06  -7.192895458723627E-06  -7.374973695221163E-06
  -7.561660711578357E-06  -7.753073151278737E-06  -7.949330609197094E-06
  -8.150555706239693E-06  -8.356874165870356E-06  -8.568414892569863E-06
  -8.785310052277050E-06  -9.007695154862305E-06  -9.235709138683752E-06
  -9.469494457279412E-06  -9.709197168248696E-06  -9.954967024378540E-06
  -1.020695756707075E-05  -1.046532622212843E-05  -1.073023439796095E-05
  -1.100184758626854E-05  -1.128033546526844E-05  -1.156587200552730E-05
  -1.185863557846474E-05  -1.215880906759575E-05  -1.246657998258074E-05
  -1.278214057615378E-05  -1.310568796400150E-05  -1.343742424766687E-05
  -1.377755664055398E-05  -1.412629759711174E-05  -1.448386494527625E-05
  -1.485048202225416E-05  -1.522637781373051E-05  -1.561178709658744E-05
  -1.600695058522176E-05  -1.641211508155187E-05  -1.682753362880670E-05
  -1.725346566919143E-05  -1.769017720552751E-05  -1.813794096696668E-05
  -1.859703657888102E-05  -1.906775073703407E-05  -1.955037738614005E-05
  -2.004521790292148E-05  -2.055258128377783E-05  -2.107278433718064E-05
  -2.160615188091381E-05  -2.215301694428002E-05  -2.271372097539790E-05
  -2.328861405371746E-05  -2.387805510788391E-05  -2.448241213908427E-05
  -2.510206245001327E-05  -2.573739287959964E-05  -2.638880004363623E-05
  -2.705669058146174E-05  -2.774148140884541E-05  -2.844359997722872E-05
  -2.916348453948394E-05  -2.990158442235128E-05  -3.065836030572118E-05
  -3.143428450893315E-05  -3.222984128426506E-05  -3.304552711779267E-05
  -3.388185103780287E-05  -3.473933493094791E-05  -3.561851386633461E-05
  -3.651993642774406E-05  -3.744416505418560E-05  -3.839177638899121E-05
  -3.936336163766226E-05  -4.035952693468670E-05  -4.138089371954803E-05
  -4.242809912215518E-05  -4.350179635792590E-05  -4.460265513276277E-05
  -4.573136205816746E-05  -4.688862107674286E-05  -4.807515389834102E-05
  -4.929170044711931E-05  -5.053901931977390E-05  -5.181788825522731E-05
  -5.312910461605140E-05  -5.447348588191557E-05  -5.585187015535655E-05
  -5.726511668017183E-05  -5.871410637274872E-05  -6.019974236664530E-05
  -6.172295057074956E-05  -6.328468024134998E-05  -6.488590456845710E-05
  -6.652762127672681E-05  -6.821085324134161E-05  -6.993664911921536E-05
  -7.170608399589629E-05  -7.352026004855185E-05  -7.538030722542469E-05
  -7.728738394216449E-05  -7.924267779544362E-05  -8.124740629427747E-05
  -8.330281760947938E-05  -8.541019134168844E-05  -8.757083930842219E-05
  -8.978610635061259E-05  -9.205737115909635E-05  -9.438604712154210E-05
  -9.677358319030421E-05  -9.922146477171034E-05  -1.017312146372946E-04
  -1.043043938575053E-04  -1.069426027584247E-04  -1.096474819020499E-04
  -1.124207130907011E-04  -1.152640203961301E-04  -1.181791712139170E-04
  -1.211679773437591E-04  -1.242322960962614E-04  -1.273740314268620E-04
  -1.305951350975296E-04  -1.338976078668914E-04  -1.372835007094593E-04
  -1.407549160646381E-04  -1.443140091162160E-04  -1.479629891030493E-04
  -1.517041206616703E-04  -1.555397252015627E-04  -1.594721823138623E-04
  -1.635039312142599E-04  -1.676374722208967E-04  -1.718753682680596E-04
  -1.762202464565008E-04  -1.806747996412187E-04  -1.852417880575642E-04
  -1.899240409865386E-04  -1.947244584601808E-04  -1.996460130079510E-04
  -2.046917514450326E-04  -2.098647967035064E-04  -2.151683497073492E-04
  -2.206056912922438E-04  -2.261801841711981E-04  -2.318952749469829E-04
  -2.377544961724366E-04  -2.437614684596789E-04  -2.499199026393121E-04
  -2.562336019707013E-04  -2.627064644044374E-04  -2.693424848981196E-04
  -2.761457577866012E-04  -2.831204792078614E-04  -2.902709495856962E-04
  -2.976015761704209E-04  -3.051168756388158E-04  -3.128214767545517E-04
  -3.207201230903509E-04  -3.288176758131636E-04  -3.371191165336555E-04
  -3.456295502213080E-04  -3.543542081864740E-04  -3.632984511307244E-04
  -3.724677722668476E-04  -3.818678005098870E-04  -3.915043037405948E-04
  -4.013831921427252E-04  -4.115105216155754E-04  -4.218924972632149E-04
  -4.325354769618512E-04  -4.434459750067788E-04  -4.546306658403946E-04
  -4.660963878627477E-04  -4.778501473261122E-04  -4.898991223150780E-04
  -5.022506668136523E-04  -5.149123148608813E-04  -5.278917847964916E-04
  -5.411969835980612E-04  -5.548360113112248E-04  -5.688171655744047E-04
  -5.831489462395803E-04  -5.978400600905734E-04  -6.128994256603268E-04
  -6.283361781486537E-04  -6.441596744418887E-04  -6.603794982358913E-04
  -6.770054652637992E-04  -6.940476286299185E-04  -7.115162842511104E-04
  -7.294219764069829E-04  -7.477755034001871E-04  -7.665879233280540E-04
  -7.858705599667636E-04  -8.056350087692034E-04  -8.258931429775803E-04
  -8.466571198518357E-04  -8.679393870148059E-04  -8.897526889150043E-04
  -9.121100734078339E-04  -9.350248984559218E-04  -9.585108389492005E-04
  -9.825818936452363E-04  -1.007252392230182E-03  -1.032537002500650E-03
  -1.058450737666587E-03  -1.085008963775205E-03  -1.112227407255746E-03
  -1.140122162584767E-03  -1.168709700071468E-03  -1.198006873762279E-03
  -1.228030929463895E-03  -1.258799512883556E-03  -1.290330677885245E-03
  -1.322642894860193E-03  -1.355755059209768E-03  -1.389686499938639E-03
  -1.424456988355693E-03  -1.460086746879923E-03  -1.496596457948154E-03
  -1.534007273021046E-03  -1.572340821683535E-03  -1.611619220835323E-03
  -1.651865083966689E-03  -1.693101530514377E-03  -1.735352195291784E-03
  -1.778641237987244E-03  -1.822993352723529E-03  -1.868433777671137E-03
  -1.914988304707363E-03  -1.962683289112323E-03  -2.011545659292607E-03
  -2.061602926522282E-03  -2.112883194690309E-03  -2.165415170042551E-03
  -2.219228170905605E-03  -2.274352137378896E-03  -2.330817640980319E-03
  -2.388655894229757E-03  -2.447898760153705E-03  -2.508578761692973E-03
  -2.570729090994327E-03  -2.634383618565530E-03  -2.699576902271904E-03
  -2.766344196151130E-03  -2.834721459021347E-03  -2.904745362856184E-03
  -2.976453300898507E-03  -3.049883395482944E-03  -3.125074505535380E-03
  -3.202066233715568E-03  -3.280898933167011E-03  -3.361613713835978E-03
  -3.444252448319275E-03  -3.528857777197933E-03  -3.615473113811367E-03
  -3.704142648424023E-03  -3.794911351733524E-03  -3.887824977666432E-03
  -3.982930065404743E-03  -4.080273940582620E-03  -4.179904715589879E-03
  -4.281871288914729E-03  -4.386223343454669E-03  -4.493011343720496E-03
  -4.602286531854004E-03  -4.714100922375771E-03  -4.828507295574784E-03
  -4.945559189446690E-03  -5.065310890082666E-03  -5.187817420405282E-03
  -5.313134527142519E-03  -5.441318665925060E-03  -5.572426984385942E-03
  -5.706517303135376E-03  -5.843648094476666E-03  -5.983878458722490E-03
  -6.127268097963229E-03  -6.273877287131507E-03  -6.423766842199224E-03
  -6.576998085334770E-03  -6.733632806839767E-03  -6.893733223675237E-03
  -7.057361934377795E-03  -7.224581870156609E-03  -7.395456241951169E-03
  -7.570048483219745E-03  -7.748422188216481E-03  -7.930641045503888E-03
  -8.116768766435013E-03  -8.306869008326829E-03  -8.501005292033414E-03
  -8.699240913613382E-03  -8.901638849771970E-03  -9.108261656743092E-03
  -9.319171362261356E-03  -9.534429350257863E-03  -9.754096237897043E-03
  -9.978231744554233E-03  -1.020689455231614E-02  -1.044014215756726E-02
  -1.067803071320656E-02  -1.092061486101831E-02  -1.116794755370082E-02
  -1.142007986603502E-02  -1.167706079465317E-02  -1.193893704584524E-02
  -1.220575281081679E-02  -1.247754952778840E-02  -1.275436563030162E-02
  -1.303623628107085E-02  -1.332319309069459E-02  -1.361526382051206E-02
  -1.391247206886413E-02  -1.421483693998886E-02  -1.452237269475299E-02
  -1.483508838239163E-02  -1.515298745239791E-02  -1.547606734567371E-02
  -1.580431906402207E-02  -1.613772671702921E-02  -1.647626704535355E-02
  -1.681990891940570E-02  -1.716861281237157E-02  -1.752233024649820E-02
  -1.788100321152852E-02  -1.824456355413991E-02  -1.861293233720790E-02
  -1.898601916768507E-02  -1.936372149185336E-02  -1.974592385667699E-02
  -2.013249713595378E-02  -2.052329771993273E-02  -2.091816666703923E-02
  -2.131692881632181E-02  -2.171939185921103E-02  -2.212534536915854E-02
  -2.253455978770444E-02  -2.294678536550395E-02  -2.336175105683136E-02
  -2.377916336606734E-02  -2.419870514467192E-02  -2.462003433714115E-02
  -2.504278267445112E-02  -2.546655431350060E-02  -2.589092442107961E-02
  -2.631543770091345E-02  -2.673960686236148E-02  -2.716291102938826E-02
  -2.758479408847289E-02  -2.800466297417886E-02  -2.842188589117718E-02
  -2.883579047159556E-02  -2.924566186666010E-02  -2.965074077170639E-02
  -3.005022138375833E-02  -3.044324929101654E-02  -3.082891929375567E-02
  -3.120627315630985E-02  -3.157429729002590E-02  -3.193192036728624E-02
  -3.227801086695339E-02  -3.261137455186026E-02  -3.293075187927543E-02
  -3.323481534560515E-02  -3.352216676696031E-02  -3.379133449761785E-02
  -3.404077058884466E-02  -3.426884789102905E-02  -3.447385710258639E-02
  -3.465400376966890E-02  -3.480740524132320E-02  -3.493208758540085E-02
  -3.502598247124319E-02  -3.508692402593318E-02  -3.511264567173808E-02
  -3.510077695325852E-02  -3.504884036375811E-02  -3.495424818117304E-02
  -3.481429932539762E-02  -3.462617624961388E-02  -3.438694187968026E-02
  -3.409353661692296E-02  -3.374277542108471E-02  -3.333134499168074E-02
  -3.285580106759567E-02  -3.231256586642819E-02  -3.169792568685435E-02
  -3.100802869913744E-02  -3.023888295086334E-02  -2.938635461702443E-02
  -2.844616652571257E-02  -2.741389699291453E-02  -2.628497900222222E-02
  -2.505469976768167E-02  -2.371820072049775E-02  -2.227047796288561E-02
  -2.070638323500424E-02  -1.902062544362146E-02  -1.720777280392270E-02
  -1.526225564869161E-02  -1.317836996192637E-02  -1.095028169681708E-02
  -8.572031940861591E-03  -6.037542993724637E-03  -3.340625426232827E-03
  -4.749861915973874E-04   2.565762137433723E-03   5.788090929334626E-03
   9.198543774026506E-03   1.280372340205462E-02   1.661027716041431E-02
   2.062488096123700E-02   2.485422161845076E-02   2.930497748687181E-02
   3.398379731801810E-02   3.889727724738945E-02   4.405193582902331E-02
   4.945418703499971E-02   5.511031114025850E-02   6.102642341670080E-02
   6.720844056526920E-02   7.366204482051152E-02   8.039264566929398E-02
   8.740533913387706E-02   9.470486457962490E-02   1.022955590194405E-01
   1.101813089005595E-01   1.183654993749237E-01   1.268509610720411E-01
   1.356399144131261E-01   1.447339115277389E-01   1.541337758589742E-01
   1.638395395709048E-01   1.738503789024186E-01   1.841645476449230E-01
   1.947793089579191E-01   2.056908657759532E-01   2.168942901033150E-01
   2.283834515388946E-01   2.401509454228624E-01   2.521880210494283E-01
   2.644845104454777E-01   2.770287582735459E-01   2.898075534789734E-01
   3.028060633648786E-01   3.160077708446687E-01   3.293944156893529E-01
   3.429459406557073E-01   3.566404434505053E-01   3.704541355546773E-01
   3.843613089987767E-01   3.983343122459271E-01   4.123435363996908E-01
   4.263574130103033E-01   4.403424248018146E-01   4.542631306833318E-01
   4.680822064372546E-01   4.817605024943463E-01   4.952571202069367E-01
   5.085295080148496E-01   5.215335788611249E-01   5.342238501528052E-01
   5.465536074731020E-01   5.584750931314522E-01   5.699397204838275E-01
   5.808983147637223E-01   5.913013809305324E-01   6.010993987632903E-01
   6.102431451002037E-01   6.186840427449429E-01   6.263745351263362E-01
   6.332684853063419E-01   6.393215973802877E-01   6.444918577021714E-01
   6.487399926962834E-01   6.520299392857728E-01   6.543293231814791E-01
   6.556099394348494E-01   6.558482287732278E-01   6.550257423128854E-01
   6.531295862959910E-01   6.501528375363697E-01   6.460949193026785E-01
   6.409619264372954E-01   6.347668876294941E-01   6.275299519608887E-01
   6.192784861528232E-01   6.100470684064555E-01   5.998773643786850E-01
   5.888178707268569E-01   5.769235118325026E-01   5.642550758334414E-01
   5.508784770112836E-01   5.368638329572831E-01   5.222843468342243E-01
   5.072149875256212E-01   4.917309635745174E-01   4.759059906161119E-01
   4.598103565484728E-01   4.435087940006921E-01   4.270581757711371E-01
   4.105050558262336E-01   3.938830861559509E-01   3.772103482331342E-01
   3.604975962491087E-01   3.437857354396736E-01   3.271242243722641E-01
   3.105616045163319E-01   2.941452708536901E-01   2.779212456142897E-01
   2.619339565751091E-01   2.462260214000804E-01   2.308380395317903E-01
   2.158083931701190E-01   2.011730588876572E-01   1.869654314357564E-01
   1.732161612868474E-01   1.599530074372585E-01   1.472007069586063E-01
   1.349808627337808E-01   1.233118507444320E-01   1.122087481892693E-01
   1.016832836000693E-01   9.174381003224030E-02   8.239530215629898E-02
   7.363937805601073E-02   6.547434622609294E-02   5.789527810210848E-02
   5.089410621203938E-02   4.445974778541684E-02   3.857825338427201E-02
   3.323297983230078E-02   2.840478641725297E-02   2.407225300766025E-02
   2.021191873895106E-02   1.679853709168300E-02   1.380535377829789E-02
   1.120438400614254E-02   8.966705965400446E-03   7.062771624722020E-03
   5.462718787489773E-03   4.136680535675508E-03   3.055091065800986E-03
   2.188984672815142E-03   1.510284116193861E-03   9.920746547182335E-04
   6.088601609635091E-04   3.367979269061627E-04   1.539090477918614E-04
   4.026162002560008E-05  -2.187559609798106E-05  -4.791092666794894E-05
  -5.084031186108895E-05  -4.119143948227988E-05  -2.700177763764744E-05
  -1.383029466228702E-05  -4.802212517140969E-06  -6.857984805042072E-07
   8.326672684688674E-17   0.000000000000000E+00   0.000000000000000E+00
   0.000000000000000E+00   0.000000000000000E+00   0.000000000000000E+00
   0.000000000000000E+00   0.000000000000000E+00   0.000000000000000E+00
   0.000000000000000E+00   0.000000000000000E+00   0.000000000000000E+00
   0.000000000000000E+00   0.000000000000000E+00   0.000000000000000E+00
   0.000000000000000E+00   0.000000000000000E+00   0.000000000000000E+00
   0.000000000000000E+00   0.000000000000000E+00   0.000000000000000E+00
   0.000000000000000E+00   0.000000000000000E+00   0.000000000000000E+00
   0.000000000000000E+00   0.000000000000000E+00   0.000000000000000E+00
   0.000000000000000E+00   0.000000000000000E+00   0.000000000000000E+00
   0.000000000000000E+00   0.000000000000000E+00   0.000000000000000E+00
   0.000000000000000E+00   0.000000000000000E+00   0.000000000000000E+00
   0.000000000000000E+00   0.000000000000000E+00   0.000000000000000E+00
   0.000000000000000E+00   0.000000000000000E+00   0.000000000000000E+00
   0.000000000000000E+00   0.000000000000000E+00   0.000000000000000E+00
   0.000000000000000E+00   0.000000000000000E+00   0.000000000000000E+00
   0.000000000000000E+00   0.000000000000000E+00   0.000000000000000E+00
   0.000000000000000E+00   0.000000000000000E+00   0.000000000000000E+00
   0.000000000000000E+00   0.000000000000000E+00   0.000000000000000E+00
   0.000000000000000E+00   0.000000000000000E+00   0.000000000000000E+00
   0.000000000000000E+00   0.000000000000000E+00   0.000000000000000E+00
   0.000000000000000E+00   0.000000000000000E+00   0.000000000000000E+00
   0.000000000000000E+00   0.000000000000000E+00   0.000000000000000E+00
   0.000000000000000E+00   0.000000000000000E+00   0.000000000000000E+00
   0.000000000000000E+00   0.000000000000000E+00   0.000000000000000E+00
   0.000000000000000E+00   0.000000000000000E+00   0.000000000000000E+00
   0.000000000000000E+00   0.000000000000000E+00   0.000000000000000E+00
   0.000000000000000E+00   0.000000000000000E+00   0.000000000000000E+00
   0.000000000000000E+00   0.000000000000000E+00   0.000000000000000E+00
   0.000000000000000E+00   0.000000000000000E+00   0.000000000000000E+00
   0.000000000000000E+00   0.000000000000000E+00   0.000000000000000E+00
   0.000000000000000E+00   0.000000000000000E+00   0.000000000000000E+00
   0.000000000000000E+00   0.000000000000000E+00   0.000000000000000E+00
   0.000000000000000E+00   0.000000000000000E+00   0.000000000000000E+00
   0.000000000000000E+00   0.000000000000000E+00   0.000000000000000E+00
   0.000000000000000E+00   0.000000000000000E+00   0.000000000000000E+00
   0.000000000000000E+00   0.000000000000000E+00   0.000000000000000E+00
   0.000000000000000E+00   0.000000000000000E+00   0.000000000000000E+00
   0.000000000000000E+00   0.000000000000000E+00   0.000000000000000E+00
   0.000000000000000E+00   0.000000000000000E+00   0.000000000000000E+00
   0.000000000000000E+00   0.000000000000000E+00   0.000000000000000E+00
   0.000000000000000E+00   0.000000000000000E+00   0.000000000000000E+00
   0.000000000000000E+00   0.000000000000000E+00   0.000000000000000E+00
   0.000000000000000E+00   0.000000000000000E+00   0.000000000000000E+00
   0.000000000000000E+00   0.000000000000000E+00   0.000000000000000E+00
   0.000000000000000E+00   0.000000000000000E+00   0.000000000000000E+00
   0.000000000000000E+00   0.000000000000000E+00   0.000000000000000E+00
   0.000000000000000E+00   0.000000000000000E+00   0.000000000000000E+00
   0.000000000000000E+00   0.000000000000000E+00   0.000000000000000E+00
   0.000000000000000E+00   0.000000000000000E+00   0.000000000000000E+00
   0.000000000000000E+00   0.000000000000000E+00   0.000000000000000E+00
   0.000000000000000E+00   0.000000000000000E+00   0.000000000000000E+00
   0.000000000000000E+00   0.000000000000000E+00   0.000000000000000E+00
   0.000000000000000E+00   0.000000000000000E+00   0.000000000000000E+00
   0.000000000000000E+00   0.000000000000000E+00   0.000000000000000E+00
   0.000000000000000E+00   0.000000000000000E+00   0.000000000000000E+00
   0.000000000000000E+00   0.000000000000000E+00   0.000000000000000E+00
   0.000000000000000E+00   0.000000000000000E+00   0.000000000000000E+00
   0.000000000000000E+00   0.000000000000000E+00   0.000000000000000E+00
   0.000000000000000E+00   0.000000000000000E+00   0.000000000000000E+00
   0.000000000000000E+00   0.000000000000000E+00   0.000000000000000E+00
   0.000000000000000E+00   0.000000000000000E+00   0.000000000000000E+00
   0.000000000000000E+00   0.000000000000000E+00   0.000000000000000E+00
   0.000000000000000E+00   0.000000000000000E+00   0.000000000000000E+00
   0.000000000000000E+00   0.000000000000000E+00   0.000000000000000E+00
   0.000000000000000E+00   0.000000000000000E+00   0.000000000000000E+00
   0.000000000000000E+00   0.000000000000000E+00   0.000000000000000E+00
   0.000000000000000E+00   0.000000000000000E+00   0.000000000000000E+00
   0.000000000000000E+00   0.000000000000000E+00   0.000000000000000E+00
   0.000000000000000E+00   0.000000000000000E+00   0.000000000000000E+00
   0.000000000000000E+00   0.000000000000000E+00   0.000000000000000E+00
   0.000000000000000E+00   0.000000000000000E+00   0.000000000000000E+00
   0.000000000000000E+00   0.000000000000000E+00   0.000000000000000E+00
   0.000000000000000E+00   0.000000000000000E+00   0.000000000000000E+00
   0.000000000000000E+00   0.000000000000000E+00   0.000000000000000E+00
   0.000000000000000E+00   0.000000000000000E+00   0.000000000000000E+00
   0.000000000000000E+00   0.000000000000000E+00   0.000000000000000E+00
   0.000000000000000E+00   0.000000000000000E+00   0.000000000000000E+00
   0.000000000000000E+00   0.000000000000000E+00   0.000000000000000E+00
   0.000000000000000E+00   0.000000000000000E+00   0.000000000000000E+00
   0.000000000000000E+00   0.000000000000000E+00   0.000000000000000E+00
   0.000000000000000E+00   0.000000000000000E+00   0.000000000000000E+00
   0.000000000000000E+00   0.000000000000000E+00   0.000000000000000E+00
   0.000000000000000E+00   0.000000000000000E+00   0.000000000000000E+00
   0.000000000000000E+00   0.000000000000000E+00   0.000000000000000E+00
   0.000000000000000E+00   0.000000000000000E+00   0.000000000000000E+00
   0.000000000000000E+00   0.000000000000000E+00   0.000000000000000E+00
   0.000000000000000E+00   0.000000000000000E+00   0.000000000000000E+00
   0.000000000000000E+00   0.000000000000000E+00   0.000000000000000E+00
   0.000000000000000E+00   0.000000000000000E+00   0.000000000000000E+00
   0.000000000000000E+00   0.000000000000000E+00   0.000000000000000E+00
   0.000000000000000E+00   0.000000000000000E+00   0.000000000000000E+00
   0.000000000000000E+00   0.000000000000000E+00   0.000000000000000E+00
   0.000000000000000E+00   0.000000000000000E+00   0.000000000000000E+00
   0.000000000000000E+00   0.000000000000000E+00   0.000000000000000E+00
   0.000000000000000E+00   0.000000000000000E+00   0.000000000000000E+00
   0.000000000000000E+00   0.000000000000000E+00   0.000000000000000E+00
   0.000000000000000E+00   0.000000000000000E+00   0.000000000000000E+00
   0.000000000000000E+00   0.000000000000000E+00   0.000000000000000E+00
   0.000000000000000E+00   0.000000000000000E+00   0.000000000000000E+00
   0.000000000000000E+00   0.000000000000000E+00   0.000000000000000E+00
   0.000000000000000E+00   0.000000000000000E+00   0.000000000000000E+00
   0.000000000000000E+00   0.000000000000000E+00   0.000000000000000E+00
   0.000000000000000E+00   0.000000000000000E+00   0.000000000000000E+00
   0.000000000000000E+00   0.000000000000000E+00   0.000000000000000E+00
   0.000000000000000E+00   0.000000000000000E+00   0.000000000000000E+00
   0.000000000000000E+00   0.000000000000000E+00   0.000000000000000E+00
   0.000000000000000E+00   0.000000000000000E+00   0.000000000000000E+00
   0.000000000000000E+00   0.000000000000000E+00   0.000000000000000E+00
   0.000000000000000E+00   0.000000000000000E+00   0.000000000000000E+00
   0.000000000000000E+00   0.000000000000000E+00   0.000000000000000E+00
   0.000000000000000E+00   0.000000000000000E+00   0.000000000000000E+00
   0.000000000000000E+00   0.000000000000000E+00   0.000000000000000E+00
   0.000000000000000E+00   0.000000000000000E+00   0.000000000000000E+00
   0.000000000000000E+00
      </PP_QIJL.1.1.0>
      <PP_QIJL.1.2.0 first_index="1" second_index="2" composite_index="2" angular_momentum="0" size="1129">
  -2.392754419843588E-08  -2.453327283918628E-08  -2.515433557222692E-08
  -2.579112058188785E-08  -2.644402587942905E-08  -2.711345955180993E-08
  -2.779984001675680E-08  -2.850359628428740E-08  -2.922516822485561E-08
  -2.996500684428481E-08  -3.072357456566058E-08  -3.150134551835999E-08
  -3.229880583439748E-08  -3.311645395227283E-08  -3.395480092851123E-08
  -3.481437075708953E-08  -3.569570069694926E-08  -3.659934160780055E-08
  -3.752585829442671E-08  -3.847582985970544E-08  -3.944985006656607E-08
  -4.044852770911035E-08  -4.147248699312801E-08  -4.252236792624498E-08
  -4.359882671794856E-08  -4.470253618973875E-08  -4.583418619566300E-08
  -4.699448405349672E-08  -4.818415498683903E-08  -4.940394257840056E-08
  -5.065460923476555E-08  -5.193693666292016E-08  -5.325172635884371E-08
  -5.459980010846874E-08  -5.598200050132309E-08  -5.739919145717437E-08
  -5.885225876600685E-08  -6.034211064166788E-08  -6.186967828952966E-08
  -6.343591648852191E-08  -6.504180418789779E-08  -6.668834511910787E-08
  -6.837656842316330E-08  -7.010752929388064E-08  -7.188230963741118E-08
  -7.370201874846467E-08  -7.556779400365337E-08  -7.748080157238721E-08
  -7.944223714576551E-08  -8.145332668392070E-08  -8.351532718228056E-08
  -8.562952745722926E-08  -8.779724895165653E-08  -9.001984656089961E-08
  -9.229870947959511E-08  -9.463526206996626E-08  -9.703096475209352E-08
  -9.948731491672089E-08  -1.020058478611703E-07  -1.045881377489494E-07
  -1.072357985936497E-07  -1.099504852677548E-07  -1.127338945369845E-07
  -1.155877661208240E-07  -1.185138837799013E-07  -1.215140764308894E-07
  -1.245902192896342E-07  -1.277442350432201E-07  -1.309780950517049E-07
  -1.342938205802800E-07  -1.376934840626184E-07  -1.411792103962072E-07
  -1.447531782704712E-07  -1.484176215285158E-07  -1.521748305633456E-07
  -1.560271537494244E-07  -1.599769989104780E-07  -1.640268348244532E-07
  -1.681791927665743E-07  -1.724366680914634E-07  -1.768019218553093E-07
  -1.812776824791042E-07  -1.858667474539834E-07  -1.905719850897360E-07
  -1.953963363075795E-07  -2.003428164783164E-07  -2.054145173070257E-07
  -2.106146087654632E-07  -2.159463410733822E-07  -2.214130467300098E-07
  -2.270181425969487E-07  -2.327651320338093E-07  -2.386576070879043E-07
  -2.446992507393739E-07  -2.508938392031485E-07  -2.572452442891810E-07
  -2.637574358224323E-07  -2.704344841241152E-07  -2.772805625557515E-07
  -2.842999501276327E-07  -2.914970341733089E-07  -2.988763130917872E-07
  -3.064423991591444E-07  -3.142000214113151E-07  -3.221540285998613E-07
  -3.303093922225577E-07  -3.386712096307045E-07  -3.472447072150944E-07
  -3.560352436726349E-07  -3.650483133556639E-07  -3.742895497060485E-07
  -3.837647287762206E-07  -3.934797728393451E-07  -4.034407540908773E-07
  -4.136538984438264E-07  -4.241255894200892E-07  -4.348623721402963E-07
  -4.458709574146582E-07  -4.571582259373677E-07  -4.687312325871853E-07
  -4.805972108368851E-07  -4.927635772743321E-07  -5.052379362380013E-07
  -5.180280845698460E-07  -5.311420164884838E-07  -5.445879285857382E-07
  -5.583742249496721E-07  -5.725095224173036E-07  -5.870026559602914E-07
  -6.018626842069596E-07  -6.170988951041006E-07  -6.327208117221104E-07
  -6.487381982070736E-07  -6.651610658835207E-07  -6.819996795116775E-07
  -6.992645637031014E-07  -7.169665094987341E-07  -7.351165811134702E-07
  -7.537261228514540E-07  -7.728067661964432E-07  -7.923704370816404E-07
  -8.124293633435716E-07  -8.329960823646437E-07  -8.540834489091661E-07
  -8.757046431577402E-07  -8.978731789450204E-07  -9.206029122060142E-07
  -9.439080496361906E-07  -9.678031575708030E-07  -9.923031710889965E-07
  -1.017423403348353E-06  -1.043179555155753E-06  -1.069587724780492E-06
  -1.096664418015820E-06  -1.124426558495167E-06  -1.152891498269506E-06
  -1.182077028652480E-06  -1.212001391340049E-06  -1.242683289811611E-06
  -1.274141901019749E-06  -1.306396887375846E-06  -1.339468409039137E-06
  -1.373377136516816E-06  -1.408144263583096E-06  -1.443791520525310E-06
  -1.480341187725277E-06  -1.517816109584511E-06  -1.556239708801862E-06
  -1.595636001012610E-06  -1.636029609798116E-06  -1.677445782075371E-06
  -1.719910403876170E-06  -1.763450016525638E-06  -1.808091833230315E-06
  -1.853863756086136E-06  -1.900794393516882E-06  -1.948913078154134E-06
  -1.998249885169710E-06  -2.048835651072223E-06  -2.100701992979402E-06
  -2.153881328378205E-06  -2.208406895385187E-06  -2.264312773519616E-06
  -2.321633905002464E-06  -2.380406116594509E-06  -2.440666141987154E-06
  -2.502451644760105E-06  -2.565801241920041E-06  -2.630754528035156E-06
  -2.697352099980589E-06  -2.765635582310138E-06  -2.835647653270283E-06
  -2.907432071472543E-06  -2.981033703241019E-06  -3.056498550652152E-06
  -3.133873780284101E-06  -3.213207752693946E-06  -3.294550052640856E-06
  -3.377951520074295E-06  -3.463464281906598E-06  -3.551141784589602E-06
  -3.641038827515997E-06  -3.733211597265900E-06  -3.827717702720334E-06
  -3.924616211063422E-06  -4.023967684695705E-06  -4.125834219081908E-06
  -4.230279481556446E-06  -4.337368751111190E-06  -4.447168959190257E-06
  -4.559748731517156E-06  -4.675178430980765E-06  -4.793530201606496E-06
  -4.914878013640464E-06  -5.039297709774659E-06  -5.166867052541915E-06
  -5.297665772910560E-06  -5.431775620108725E-06  -5.569280412709724E-06
  -5.710266091010302E-06  -5.854820770734333E-06  -6.003034798095867E-06
  -6.155000806255415E-06  -6.310813773205157E-06  -6.470571081119049E-06
  -6.634372577204711E-06  -6.802320636095564E-06  -6.974520223821609E-06
  -7.151078963399195E-06  -7.332107202080649E-06  -7.517718080305474E-06
  -7.708027602396739E-06  -7.903154709046105E-06  -8.103221351633298E-06
  -8.308352568426205E-06  -8.518676562708959E-06  -8.734324782887353E-06
  -8.955432004620876E-06  -9.182136415033171E-06  -9.414579699053356E-06
  -9.652907127941731E-06  -9.897267650055914E-06  -1.014781398391307E-05
  -1.040470271360716E-05  -1.066809438664026E-05  -1.093815361422916E-05
  -1.121504917414989E-05  -1.149895411618419E-05  -1.179004587023386E-05
  -1.208850635717045E-05  -1.239452210248923E-05  -1.270828435283879E-05
  -1.302998919549836E-05  -1.335983768087797E-05  -1.369803594811754E-05
  -1.404479535386320E-05  -1.440033260430148E-05  -1.476486989053329E-05
  -1.513863502737246E-05  -1.552186159565539E-05  -1.591478908815009E-05
  -1.631766305915637E-05  -1.673073527788970E-05  -1.715426388574484E-05
  -1.758851355753722E-05  -1.803375566682225E-05  -1.849026845539626E-05
  -1.895833720708393E-05  -1.943825442592123E-05  -1.993032001884456E-05
  -2.043484148299983E-05  -2.095213409778863E-05  -2.148252112177067E-05
  -2.202633399454552E-05  -2.258391254373923E-05  -2.315560519722480E-05
  -2.374176920070885E-05  -2.434277084081963E-05  -2.495898567383571E-05
  -2.559079876019771E-05  -2.623860490494866E-05  -2.690280890425342E-05
  -2.758382579814985E-05  -2.828208112968972E-05  -2.899801121063031E-05
  -2.973206339384182E-05  -3.048469635260096E-05  -3.125638036694324E-05
  -3.204759761725322E-05  -3.285884248527503E-05  -3.369062186272964E-05
  -3.454345546773228E-05  -3.541787616920505E-05  -3.631443031948802E-05
  -3.723367809535445E-05  -3.817619384764252E-05  -3.914256645972112E-05
  -4.013339971501168E-05  -4.114931267379535E-05  -4.219094005953891E-05
  -4.325893265497947E-05  -4.435395770821427E-05  -4.547669934904721E-05
  -4.662785901585102E-05  -4.780815589321002E-05  -4.901832736061440E-05
  -5.025912945248544E-05  -5.153133732981614E-05  -5.283574576372045E-05
  -5.417316963119053E-05  -5.554444442336945E-05  -5.695042676665486E-05
  -5.839199495695576E-05  -5.987004950743398E-05  -6.138551371006995E-05
  -6.293933421139924E-05  -6.453248160277830E-05  -6.616595102554271E-05
  -6.784076279143405E-05  -6.955796301867884E-05  -7.131862428411218E-05
  -7.312384629175054E-05  -7.497475655822638E-05  -7.687251111550801E-05
  -7.881829523133962E-05  -8.081332414784642E-05  -8.285884383875934E-05
  -8.495613178572924E-05  -8.710649777420822E-05  -8.931128470938886E-05
  -9.157186945270612E-05  -9.388966367941447E-05  -9.626611475777300E-05
  -9.870270665037678E-05  -1.012009608381905E-04  -1.037624372678545E-04
  -1.063887353228434E-04  -1.090814948190779E-04  -1.118423970255994E-04
  -1.146731657109354E-04  -1.175755682158010E-04  -1.205514165527889E-04
  -1.236025685337313E-04  -1.267309289254176E-04  -1.299384506343823E-04
  -1.332271359214862E-04  -1.365990376470344E-04  -1.400562605471965E-04
  -1.436009625425081E-04  -1.472353560792527E-04  -1.509617095045480E-04
  -1.547823484759710E-04  -1.586996574065880E-04  -1.627160809462683E-04
  -1.668341255001850E-04  -1.710563607854309E-04  -1.753854214266916E-04
  -1.798240085919555E-04  -1.843748916692483E-04  -1.890409099854140E-04
  -1.938249745679882E-04  -1.987300699512272E-04  -2.037592560273956E-04
  -2.089156699444282E-04  -2.142025280511179E-04  -2.196231278910080E-04
  -2.251808502461874E-04  -2.308791612322330E-04  -2.367216144455547E-04
  -2.427118531644424E-04  -2.488536126051401E-04  -2.551507222343005E-04
  -2.616071081392172E-04  -2.682267954572519E-04  -2.750139108659160E-04
  -2.819726851351020E-04  -2.891074557429829E-04  -2.964226695571566E-04
  -3.039228855826263E-04  -3.116127777782593E-04  -3.194971379434065E-04
  -3.275808786763903E-04  -3.358690364066286E-04  -3.443667745021907E-04
  -3.530793864546253E-04  -3.620122991429462E-04  -3.711710761787104E-04
  -3.805614213341470E-04  -3.901891820553789E-04  -4.000603530627845E-04
  -4.101810800406248E-04  -4.205576634180975E-04  -4.311965622440263E-04
  -4.421043981574586E-04  -4.532879594564796E-04  -4.647542052676165E-04
  -4.765102698182572E-04  -4.885634668145524E-04  -5.009212939273470E-04
  -5.135914373887262E-04  -5.265817767018258E-04  -5.399003894666200E-04
  -5.535555563244469E-04  -5.675557660241148E-04  -5.819097206124768E-04
  -5.966263407524307E-04  -6.117147711713738E-04  -6.271843862431875E-04
  -6.430447957069296E-04  -6.593058505254389E-04  -6.759776488871576E-04
  -6.930705423545405E-04  -7.105951421624695E-04  -7.285623256702108E-04
  -7.469832429704756E-04  -7.658693236592607E-04  -7.852322837702010E-04
  -8.050841328772352E-04  -8.254371813695028E-04  -8.463040479024245E-04
  -8.676976670290281E-04  -8.896312970156600E-04  -9.121185278462835E-04
  -9.351732894196899E-04  -9.588098599439964E-04  -9.830428745329016E-04
  -1.007887334008278E-03  -1.033358613913715E-03  -1.059472473743789E-03
  -1.086245066393860E-03  -1.113692947835318E-03  -1.141833087021288E-03
  -1.170682876027886E-03  -1.200260140436218E-03  -1.230583149960414E-03
  -1.261670629327045E-03  -1.293541769411429E-03  -1.326216238636332E-03
  -1.359714194638784E-03  -1.394056296210690E-03  -1.429263715519130E-03
  -1.465358150612241E-03  -1.502361838216720E-03  -1.540297566833069E-03
  -1.579188690134777E-03  -1.619059140677741E-03  -1.659933443926320E-03
  -1.701836732602457E-03  -1.744794761364490E-03  -1.788833921822240E-03
  -1.833981257895123E-03  -1.880264481520117E-03  -1.927711988716396E-03
  -1.976352876013680E-03  -2.026216957251276E-03  -2.077334780754908E-03
  -2.129737646898554E-03  -2.183457626058428E-03  -2.238527576966486E-03
  -2.294981165470718E-03  -2.352852883709651E-03  -2.412178069708473E-03
  -2.472992927404194E-03  -2.535334547107420E-03  -2.599240926408156E-03
  -2.664750991533198E-03  -2.731904619162662E-03  -2.800742658713083E-03
  -2.871306955094710E-03  -2.943640371950373E-03  -3.017786815383425E-03
  -3.093791258182157E-03  -3.171699764547971E-03  -3.251559515334661E-03
  -3.333418833805904E-03  -3.417327211918075E-03  -3.503335337135347E-03
  -3.591495119783829E-03  -3.681859720951496E-03  -3.774483580940327E-03
  -3.869422448276964E-03  -3.966733409287964E-03  -4.066474918245437E-03
  -4.168706828088687E-03  -4.273490421727069E-03  -4.380888443928994E-03
  -4.490965133801767E-03  -4.603786257866274E-03  -4.719419143730509E-03
  -4.837932714365123E-03  -4.959397522983899E-03  -5.083885788531486E-03
  -5.211471431780004E-03  -5.342230112035805E-03  -5.476239264456749E-03
  -5.613578137979732E-03  -5.754327833857542E-03  -5.898571344803046E-03
  -6.046393594738156E-03  -6.197881479143864E-03  -6.353123906006634E-03
  -6.512211837355601E-03  -6.675238331383490E-03  -6.842298585143450E-03
  -7.013489977812265E-03  -7.188912114509302E-03  -7.368666870659074E-03
  -7.552858436883515E-03  -7.741593364408846E-03  -7.934980610969776E-03
  -8.133131587192121E-03  -8.336160203433083E-03  -8.544182917055934E-03
  -8.757318780114372E-03  -8.975689487418755E-03  -9.199419424954485E-03
  -9.428635718620203E-03  -9.663468283250215E-03  -9.904049871883595E-03
  -1.015051612523856E-02  -1.040300562134803E-02  -1.066165992530863E-02
  -1.092662363909214E-02  -1.119804445136437E-02  -1.147607318725293E-02
  -1.176086385800074E-02  -1.205257371043834E-02  -1.235136327620302E-02
  -1.265739642062854E-02  -1.297084039122387E-02  -1.329186586565404E-02
  -1.362064699913128E-02  -1.395736147111809E-02  -1.430219053123857E-02
  -1.465531904428750E-02  -1.501693553422049E-02  -1.538723222700135E-02
  -1.576640509217543E-02  -1.615465388303094E-02  -1.655218217520145E-02
  -1.695919740355513E-02  -1.737591089720769E-02  -1.780253791248670E-02
  -1.823929766366627E-02  -1.868641335128088E-02  -1.914411218781724E-02
  -1.961262542057296E-02  -2.009218835145898E-02  -2.058304035351273E-02
  -2.108542488387613E-02  -2.159958949298093E-02  -2.212578582967137E-02
  -2.266426964198036E-02  -2.321530077326317E-02  -2.377914315337727E-02
  -2.435606478458342E-02  -2.494633772182808E-02  -2.555023804705122E-02
  -2.616804583714899E-02  -2.680004512520327E-02  -2.744652385457386E-02
  -2.810777382543231E-02  -2.878409063329744E-02  -2.947577359911648E-02
  -3.018312569041549E-02  -3.090645343302469E-02  -3.164606681286548E-02
  -3.240227916726481E-02  -3.317540706524487E-02  -3.396577017621381E-02
  -3.477369112646379E-02  -3.559949534286218E-02  -3.644351088309962E-02
  -3.730606825183972E-02  -3.818750020209242E-02  -3.908814152111284E-02
  -4.000832880010717E-02  -4.094840018700473E-02  -4.190869512153759E-02
  -4.288955405184675E-02  -4.389131813181565E-02  -4.491432889831300E-02
  -4.595892792750772E-02  -4.702545646940330E-02  -4.811425505972114E-02
  -4.922566310824850E-02  -5.036001846275319E-02  -5.151765694755379E-02
  -5.269891187582743E-02  -5.390411353472551E-02  -5.513358864236447E-02
  -5.638765977575569E-02  -5.766664476873629E-02  -5.897085607896958E-02
  -6.030060012308645E-02  -6.165617657905223E-02  -6.303787765485785E-02
  -6.444598732265204E-02  -6.588078051745837E-02  -6.734252229964921E-02
  -6.883146698038506E-02  -7.034785720927134E-02  -7.189192302353194E-02
  -7.346388085805997E-02  -7.506393251576704E-02  -7.669226409772992E-02
  -7.834904489271535E-02  -8.003442622575666E-02  -8.174854026556228E-02
  -8.349149879064936E-02  -8.526339191422444E-02  -8.706428676797424E-02
  -8.889422614508086E-02  -9.075322710294852E-02  -9.264127952630788E-02
  -9.455834465156518E-02  -9.650435355348023E-02  -9.847920559548655E-02
  -1.004827668452236E-01  -1.025148684571157E-01  -1.045753050241241E-01
  -1.066638329011095E-01  -1.087801685025667E-01  -1.109239865778524E-01
  -1.130949184673919E-01  -1.152925503437512E-01  -1.175164214418744E-01
  -1.197660222832251E-01  -1.220407928990351E-01  -1.243401210583425E-01
  -1.266633405070087E-01  -1.290097292244293E-01  -1.313785077051949E-01
  -1.337688372735290E-01  -1.361798184389058E-01  -1.386104893018480E-01
  -1.410598240195173E-01  -1.435267313413252E-01  -1.460100532254264E-01
  -1.485085635475797E-01  -1.510209669144974E-01  -1.535458975944295E-01
  -1.560819185783356E-01  -1.586275207856102E-01  -1.611811224288812E-01
  -1.637410685529605E-01  -1.663056307635221E-01  -1.688730071615299E-01
  -1.714413224998475E-01  -1.740086285787679E-01  -1.765729048974558E-01
  -1.791320595784367E-01  -1.816839305822956E-01  -1.842262872296735E-01
  -1.867568320474023E-01  -1.892732029552413E-01  -1.917729758091130E-01
  -1.942536673159632E-01  -1.967127383344136E-01  -1.991475975741437E-01
  -2.015556057054827E-01  -2.039340798889475E-01  -2.062802987324014E-01
  -2.085915076811622E-01  -2.108649248436596E-01  -2.130977472521794E-01
  -2.152871575547819E-01  -2.174303311306093E-01  -2.195244436165544E-01
  -2.215666788285404E-01  -2.235542370555421E-01  -2.254843436989012E-01
  -2.273542582234564E-01  -2.291612833805691E-01  -2.309027746562252E-01
  -2.325761498901192E-01  -2.341788990039628E-01  -2.357085937692525E-01
  -2.371628975364668E-01  -2.385395748391437E-01  -2.398365007776595E-01
  -2.410516700788332E-01  -2.421832057188508E-01  -2.432293669885749E-01
  -2.441885568722018E-01  -2.450593286026505E-01  -2.458403912501783E-01
  -2.465306141947498E-01  -2.471290303278604E-01  -2.476348378261046E-01
  -2.480474003370439E-01  -2.483662454181953E-01  -2.485910610725195E-01
  -2.487216902290083E-01  -2.487581230251674E-01  -2.487004867597535E-01
  -2.485490333993954E-01  -2.483041245420647E-01  -2.479662137641173E-01
  -2.475358263061006E-01  -2.470135360860155E-01  -2.463999400674475E-01
  -2.456956300541156E-01  -2.449011620319979E-01  -2.440170232352510E-01
  -2.430435971724865E-01  -2.419811269152801E-01  -2.408296770205821E-01
  -2.395890945322271E-01  -2.382589695831064E-01  -2.368385961974851E-01
  -2.353269339709234E-01  -2.337225713814433E-01  -2.320236915576947E-01
  -2.302280413953852E-01  -2.283329049690621E-01  -2.263350822290897E-01
  -2.242308739995084E-01  -2.220160742970957E-01  -2.196859709708186E-01
  -2.172353556089229E-01  -2.146585435729613E-01  -2.119494048886998E-01
  -2.091014065475351E-01  -2.061076665435188E-01  -2.029610196851535E-01
  -1.996540948733171E-01  -1.961794031232436E-01  -1.925294351268244E-01
  -1.886967666006011E-01  -1.846741690455246E-01  -1.804547228602172E-01
  -1.760340026651468E-01  -1.714166877744152E-01  -1.666108953675297E-01
  -1.616261824606945E-01  -1.564735335975659E-01  -1.511653349204113E-01
  -1.457153340177088E-01  -1.401385850618249E-01  -1.344513788859020E-01
  -1.286711578027682E-01  -1.228164151402783E-01  -1.169065796562052E-01
  -1.109618852009185E-01  -1.050032262158060E-01  -9.905199988796672E-02
  -9.312993602463311E-02  -8.725891596078222E-02  -8.146078206725008E-02
  -7.575713967979064E-02  -7.016915351720245E-02  -6.471734089462931E-02
  -5.942136425777937E-02  -5.429982576346641E-02  -4.937006680063701E-02
  -4.464797548001022E-02  -4.014780521213259E-02  -3.588200753655080E-02
  -3.186108235327126E-02  -2.809344863600027E-02  -2.458533856923162E-02
  -2.134071787096752E-02  -1.836123460243377E-02  -1.564619927415987E-02
  -1.319259610046147E-02  -1.099512764116660E-02  -9.046295453688596E-03
  -7.336516366447152E-03  -5.854271567876546E-03  -4.586288989954751E-03
  -3.517757188719522E-03  -2.632568428731510E-03  -1.913588203401637E-03
  -1.342947905628444E-03  -9.023569692512001E-04  -5.734305035169224E-04
  -3.380282603149959E-04  -1.786007151173552E-04  -7.853810775079739E-05
  -2.251846894235632E-05   3.149067952151752E-06   1.018903800301119E-05
   8.035523892530039E-06   3.521880597684435E-06   5.868894344396303E-07
  -4.163336342344337E-17   0.000000000000000E+00   0.000000000000000E+00
   0.000000000000000E+00   0.000000000000000E+00   0.000000000000000E+00
   0.000000000000000E+00   0.000000000000000E+00   0.000000000000000E+00
   0.000000000000000E+00   0.000000000000000E+00   0.000000000000000E+00
   0.000000000000000E+00   0.000000000000000E+00   0.000000000000000E+00
   0.000000000000000E+00   0.000000000000000E+00   0.000000000000000E+00
   0.000000000000000E+00   0.000000000000000E+00   0.000000000000000E+00
   0.000000000000000E+00   0.000000000000000E+00   0.000000000000000E+00
   0.000000000000000E+00   0.000000000000000E+00   0.000000000000000E+00
   0.000000000000000E+00   0.000000000000000E+00   0.000000000000000E+00
   0.000000000000000E+00   0.000000000000000E+00   0.000000000000000E+00
   0.000000000000000E+00   0.000000000000000E+00   0.000000000000000E+00
   0.000000000000000E+00   0.000000000000000E+00   0.000000000000000E+00
   0.000000000000000E+00   0.000000000000000E+00   0.000000000000000E+00
   0.000000000000000E+00   0.000000000000000E+00   0.000000000000000E+00
   0.000000000000000E+00   0.000000000000000E+00   0.000000000000000E+00
   0.000000000000000E+00   0.000000000000000E+00   0.000000000000000E+00
   0.000000000000000E+00   0.000000000000000E+00   0.000000000000000E+00
   0.000000000000000E+00   0.000000000000000E+00   0.000000000000000E+00
   0.000000000000000E+00   0.000000000000000E+00   0.000000000000000E+00
   0.000000000000000E+00   0.000000000000000E+00   0.000000000000000E+00
   0.000000000000000E+00   0.000000000000000E+00   0.000000000000000E+00
   0.000000000000000E+00   0.000000000000000E+00   0.000000000000000E+00
   0.000000000000000E+00   0.000000000000000E+00   0.000000000000000E+00
   0.000000000000000E+00   0.000000000000000E+00   0.000000000000000E+00
   0.000000000000000E+00   0.000000000000000E+00   0.000000000000000E+00
   0.000000000000000E+00   0.000000000000000E+00   0.000000000000000E+00
   0.000000000000000E+00   0.000000000000000E+00   0.000000000000000E+00
   0.000000000000000E+00   0.000000000000000E+00   0.000000000000000E+00
   0.000000000000000E+00   0.000000000000000E+00   0.000000000000000E+00
   0.000000000000000E+00   0.000000000000000E+00   0.000000000000000E+00
   0.000000000000000E+00   0.000000000000000E+00   0.000000000000000E+00
   0.000000000000000E+00   0.000000000000000E+00   0.000000000000000E+00
   0.000000000000000E+00   0.000000000000000E+00   0.000000000000000E+00
   0.000000000000000E+00   0.000000000000000E+00   0.000000000000000E+00
   0.000000000000000E+00   0.000000000000000E+00   0.000000000000000E+00
   0.000000000000000E+00   0.000000000000000E+00   0.000000000000000E+00
   0.000000000000000E+00   0.000000000000000E+00   0.000000000000000E+00
   0.000000000000000E+00   0.000000000000000E+00   0.000000000000000E+00
   0.000000000000000E+00   0.000000000000000E+00   0.000000000000000E+00
   0.000000000000000E+00   0.000000000000000E+00   0.000000000000000E+00
   0.000000000000000E+00   0.000000000000000E+00   0.000000000000000E+00
   0.000000000000000E+00   0.000000000000000E+00   0.000000000000000E+00
   0.000000000000000E+00   0.000000000000000E+00   0.000000000000000E+00
   0.000000000000000E+00   0.000000000000000E+00   0.000000000000000E+00
   0.000000000000000E+00   0.000000000000000E+00   0.000000000000000E+00
   0.000000000000000E+00   0.000000000000000E+00   0.000000000000000E+00
   0.000000000000000E+00   0.000000000000000E+00   0.000000000000000E+00
   0.000000000000000E+00   0.000000000000000E+00   0.000000000000000E+00
   0.000000000000000E+00   0.000000000000000E+00   0.000000000000000E+00
   0.000000000000000E+00   0.000000000000000E+00   0.000000000000000E+00
   0.000000000000000E+00   0.000000000000000E+00   0.000000000000000E+00
   0.000000000000000E+00   0.000000000000000E+00   0.000000000000000E+00
   0.000000000000000E+00   0.000000000000000E+00   0.000000000000000E+00
   0.000000000000000E+00   0.000000000000000E+00   0.000000000000000E+00
   0.000000000000000E+00   0.000000000000000E+00   0.000000000000000E+00
   0.000000000000000E+00   0.000000000000000E+00   0.000000000000000E+00
   0.000000000000000E+00   0.000000000000000E+00   0.000000000000000E+00
   0.000000000000000E+00   0.000000000000000E+00   0.000000000000000E+00
   0.000000000000000E+00   0.000000000000000E+00   0.000000000000000E+00
   0.000000000000000E+00   0.000000000000000E+00   0.000000000000000E+00
   0.000000000000000E+00   0.000000000000000E+00   0.000000000000000E+00
   0.000000000000000E+00   0.000000000000000E+00   0.000000000000000E+00
   0.000000000000000E+00   0.000000000000000E+00   0.000000000000000E+00
   0.000000000000000E+00   0.000000000000000E+00   0.000000000000000E+00
   0.000000000000000E+00   0.000000000000000E+00   0.000000000000000E+00
   0.000000000000000E+00   0.000000000000000E+00   0.000000000000000E+00
   0.000000000000000E+00   0.000000000000000E+00   0.000000000000000E+00
   0.000000000000000E+00   0.000000000000000E+00   0.000000000000000E+00
   0.000000000000000E+00   0.000000000000000E+00   0.000000000000000E+00
   0.000000000000000E+00   0.000000000000000E+00   0.000000000000000E+00
   0.000000000000000E+00   0.000000000000000E+00   0.000000000000000E+00
   0.000000000000000E+00   0.000000000000000E+00   0.000000000000000E+00
   0.000000000000000E+00   0.000000000000000E+00   0.000000000000000E+00
   0.000000000000000E+00   0.000000000000000E+00   0.000000000000000E+00
   0.000000000000000E+00   0.000000000000000E+00   0.000000000000000E+00
   0.000000000000000E+00   0.000000000000000E+00   0.000000000000000E+00
   0.000000000000000E+00   0.000000000000000E+00   0.000000000000000E+00
   0.000000000000000E+00   0.000000000000000E+00   0.000000000000000E+00
   0.000000000000000E+00   0.000000000000000E+00   0.000000000000000E+00
   0.000000000000000E+00   0.000000000000000E+00   0.000000000000000E+00
   0.000000000000000E+00   0.000000000000000E+00   0.000000000000000E+00
   0.000000000000000E+00   0.000000000000000E+00   0.000000000000000E+00
   0.000000000000000E+00   0.000000000000000E+00   0.000000000000000E+00
   0.000000000000000E+00   0.000000000000000E+00   0.000000000000000E+00
   0.000000000000000E+00   0.000000000000000E+00   0.000000000000000E+00
   0.000000000000000E+00   0.000000000000000E+00   0.000000000000000E+00
   0.000000000000000E+00   0.000000000000000E+00   0.000000000000000E+00
   0.000000000000000E+00   0.000000000000000E+00   0.000000000000000E+00
   0.000000000000000E+00   0.000000000000000E+00   0.000000000000000E+00
   0.000000000000000E+00   0.000000000000000E+00   0.000000000000000E+00
   0.000000000000000E+00   0.000000000000000E+00   0.000000000000000E+00
   0.000000000000000E+00   0.000000000000000E+00   0.000000000000000E+00
   0.000000000000000E+00   0.000000000000000E+00   0.000000000000000E+00
   0.000000000000000E+00   0.000000000000000E+00   0.000000000000000E+00
   0.000000000000000E+00   0.000000000000000E+00   0.000000000000000E+00
   0.000000000000000E+00   0.000000000000000E+00   0.000000000000000E+00
   0.000000000000000E+00   0.000000000000000E+00   0.000000000000000E+00
   0.000000000000000E+00   0.000000000000000E+00   0.000000000000000E+00
   0.000000000000000E+00   0.000000000000000E+00   0.000000000000000E+00
   0.000000000000000E+00   0.000000000000000E+00   0.000000000000000E+00
   0.000000000000000E+00   0.000000000000000E+00   0.000000000000000E+00
   0.000000000000000E+00   0.000000000000000E+00   0.000000000000000E+00
   0.000000000000000E+00   0.000000000000000E+00   0.000000000000000E+00
   0.000000000000000E+00   0.000000000000000E+00   0.000000000000000E+00
   0.000000000000000E+00   0.000000000000000E+00   0.000000000000000E+00
   0.000000000000000E+00   0.000000000000000E+00   0.000000000000000E+00
   0.000000000000000E+00   0.000000000000000E+00   0.000000000000000E+00
   0.000000000000000E+00   0.000000000000000E+00   0.000000000000000E+00
   0.000000000000000E+00   0.000000000000000E+00   0.000000000000000E+00
   0.000000000000000E+00   0.000000000000000E+00   0.000000000000000E+00
   0.000000000000000E+00   0.000000000000000E+00   0.000000000000000E+00
   0.000000000000000E+00   0.000000000000000E+00   0.000000000000000E+00
   0.000000000000000E+00   0.000000000000000E+00   0.000000000000000E+00
   0.000000000000000E+00
      </PP_QIJL.1.2.0>
      <PP_QIJL.1.3.1 first_index="1" second_index="3" composite_index="4" angular_momentum="1" size="1129">
  -1.260476561078445E-11  -1.308641886938981E-11  -1.358647706038304E-11
  -1.410564347295300E-11  -1.464464827037085E-11  -1.520424951690218E-11
  -1.578523424395959E-11  -1.638841955699514E-11  -1.701465378468914E-11
  -1.766481767205214E-11  -1.833982561911717E-11  -1.904062696696532E-11
  -1.976820733289265E-11  -2.052358999659661E-11  -2.130783733933159E-11
  -2.212205233805682E-11  -2.296738011667933E-11  -2.384500955657264E-11
  -2.475617496863651E-11  -2.570215782924987E-11  -2.668428858255718E-11
  -2.770394851162436E-11  -2.876257168109514E-11  -2.986164695408005E-11
  -3.100272008611495E-11  -3.218739589913347E-11  -3.341734053851175E-11
  -3.469428381635895E-11  -3.602002164434969E-11  -3.739641855952004E-11
  -3.882541034657854E-11  -4.030900676042170E-11  -4.184929435268170E-11
  -4.344843940628210E-11  -4.510869098212930E-11  -4.683238408222314E-11
  -4.862194293363690E-11  -5.047988439798466E-11  -5.240882151117073E-11
  -5.441146715840068E-11  -5.649063788962064E-11  -5.864925788075310E-11
  -6.089036304629889E-11  -6.321710530908975E-11  -6.563275703319757E-11
  -6.814071562623157E-11  -7.074450831750087E-11  -7.344779711875844E-11
  -7.625438397450550E-11  -7.916821610909963E-11  -8.219339157818479E-11
  -8.533416503225436E-11  -8.859495370045012E-11  -9.198034360301389E-11
  -9.549509600113093E-11  -9.914415409323133E-11  -1.029326499671730E-10
  -1.068659118180805E-10  -1.109494714419907E-10  -1.151890720158475E-10
  -1.195906761747824E-10  -1.241604743980466E-10  -1.289048937153844E-10
  -1.338306067460944E-10  -1.389445410834928E-10  -1.442538890379717E-10
  -1.497661177523618E-10  -1.554889797038225E-10  -1.614305236070278E-10
  -1.675991057339880E-10  -1.740034016664187E-10  -1.806524184971960E-10
  -1.875555074980492E-10  -1.947223772713126E-10  -2.021631074042326E-10
  -2.098881626450285E-10  -2.179084076206516E-10  -2.262351221169379E-10
  -2.348800169426439E-10  -2.438552503996808E-10  -2.531734453827027E-10
  -2.628477071321106E-10  -2.728916416654267E-10  -2.833193749129711E-10
  -2.941455725847498E-10  -3.053854607964902E-10  -3.170548474838437E-10
  -3.291701446348615E-10  -3.417483913720185E-10  -3.548072779162473E-10
  -3.683651704666782E-10  -3.824411370310881E-10  -3.970549742433776E-10
  -4.122272352057955E-10  -4.279792583950713E-10  -4.443331976730986E-10
  -4.613120534443930E-10  -4.789397050041297E-10  -4.972409441222647E-10
  -5.162415099109721E-10  -5.359681250244208E-10  -5.564485332418281E-10
  -5.777115384866247E-10  -5.997870453366150E-10  -6.227061010821203E-10
  -6.465009393912191E-10  -6.712050256435439E-10  -6.968531039963506E-10
  -7.234812462490803E-10  -7.511269025751288E-10  -7.798289541921604E-10
  -8.096277680450644E-10  -8.405652535784502E-10  -8.726849216785158E-10
  -9.060319458672109E-10  -9.406532258347217E-10  -9.765974533996670E-10
  -1.013915180989752E-09  -1.052658892739188E-09  -1.092883078302893E-09
  -1.134644309491237E-09  -1.178001319833182E-09  -1.223015087179639E-09
  -1.269748919463281E-09  -1.318268543735376E-09  -1.368642198604883E-09
  -1.420940730209817E-09  -1.475237691855856E-09  -1.531609447462314E-09
  -1.590135278960986E-09  -1.650897497798861E-09  -1.713981560701605E-09
  -1.779476189860522E-09  -1.847473497712110E-09  -1.918069116485667E-09
  -1.991362332701106E-09  -2.067456226806194E-09  -2.146457818149590E-09
  -2.228478215493517E-09  -2.313632773277846E-09  -2.402041253855231E-09
  -2.493827995925586E-09  -2.589122089406721E-09  -2.688057556987064E-09
  -2.790773542615884E-09  -2.897414507195952E-09  -3.008130431754051E-09
  -3.123077028374910E-09  -3.242415959195305E-09  -3.366315063766324E-09
  -3.494948595103429E-09  -3.628497464756503E-09  -3.767149497244332E-09
  -3.911099694211507E-09  -4.060550508679209E-09  -4.215712129775461E-09
  -4.376802778345498E-09  -4.544049013857849E-09  -4.717686053037747E-09
  -4.897958100676136E-09  -5.085118693079256E-09  -5.279431054642131E-09
  -5.481168468047196E-09  -5.690614658608796E-09  -5.908064193304177E-09
  -6.133822895051807E-09  -6.368208272820292E-09  -6.611549968172000E-09
  -6.864190218870017E-09  -7.126484340200243E-09  -7.398801224685211E-09
  -7.681523860893157E-09  -7.975049872071088E-09  -8.279792075360027E-09
  -8.596179062378734E-09  -8.924655801991907E-09  -9.265684266111701E-09
  -9.619744079411215E-09  -9.987333193864933E-09  -1.036896858906413E-08
  -1.076518699929194E-08  -1.117654566838151E-08  -1.160362313341761E-08
  -1.204702003838489E-08  -1.250735997890658E-08  -1.298529037926133E-08
  -1.348148340291263E-08  -1.399663689782987E-08  -1.453147537793168E-08
  -1.508675104203138E-08  -1.566324483171685E-08  -1.626176752965421E-08
  -1.688316089985781E-08  -1.752829887153173E-08  -1.819808876814711E-08
  -1.889347258348316E-08  -1.961542830642788E-08  -2.036497129639971E-08
  -2.114315571132595E-08  -2.195107599018556E-08  -2.278986839220025E-08
  -2.366071259484105E-08  -2.456483335289422E-08  -2.550350222092249E-08
  -2.647803934154280E-08  -2.748981530203435E-08  -2.854025306189069E-08
  -2.963082995402310E-08  -3.076307976243211E-08  -3.193859487926838E-08
  -3.315902854431450E-08  -3.442609717004087E-08  -3.574158275550082E-08
  -3.710733539246305E-08  -3.852527586730435E-08  -3.999739836232023E-08
  -4.152577326025584E-08  -4.311255005599630E-08  -4.475996037951488E-08
  -4.647032113432867E-08  -4.824603775587328E-08  -5.008960759438344E-08
  -5.200362342703022E-08  -5.399077710425926E-08  -5.605386333545520E-08
  -5.819578361925374E-08  -6.041955032403399E-08  -6.272829092432209E-08
  -6.512525239906816E-08  -6.761380579798092E-08  -7.019745098233694E-08
  -7.287982154693878E-08  -7.566468993013399E-08  -7.855597271908762E-08
  -8.155773615776626E-08  -8.467420186537454E-08  -8.790975277329447E-08
  -9.126893928886449E-08  -9.475648569467405E-08  -9.837729679236941E-08
  -1.021364648003077E-07  -1.060392765147694E-07  -1.100912207447853E-07
  -1.142979960310425E-07  -1.186655186597175E-07  -1.231999309825064E-07
  -1.279076100545506E-07  -1.327951766024025E-07  -1.378695043346419E-07
  -1.431377296082355E-07  -1.486072614642251E-07  -1.542857920468646E-07
  -1.601813074208441E-07  -1.663020988018201E-07  -1.726567742160358E-07
  -1.792542706054272E-07  -1.861038663952341E-07  -1.932151945417851E-07
  -2.005982560788021E-07  -2.082634341812709E-07  -2.162215087666450E-07
  -2.244836716539208E-07  -2.330615423018842E-07  -2.419671841486663E-07
  -2.512131215755731E-07  -2.608123575190385E-07  -2.707783917554640E-07
  -2.811252398846460E-07  -2.918674530384820E-07  -3.030201383426621E-07
  -3.145989801601055E-07  -3.266202621460151E-07  -3.391008901455444E-07
  -3.520584159662722E-07  -3.655110620589009E-07  -3.794777471408682E-07
  -3.939781127989012E-07  -4.090325511078936E-07  -4.246622333049410E-07
  -4.408891395588377E-07  -4.577360898768674E-07  -4.752267761923521E-07
  -4.933857956780378E-07  -5.122386853321589E-07  -5.318119578857850E-07
  -5.521331390819138E-07  -5.732308063787248E-07  -5.951346291313585E-07
  -6.178754103087271E-07  -6.414851298039699E-07  -6.659969893994122E-07
  -6.914454594492503E-07  -7.178663273455285E-07  -7.452967478355548E-07
  -7.737752952614447E-07  -8.033420177952004E-07  -8.340384937455613E-07
  -8.659078900157154E-07  -8.989950227940455E-07  -9.333464205631705E-07
  -9.690103895158188E-07  -1.006037081469457E-06  -1.044478564375080E-06
  -1.084388895519248E-06  -1.125824197522201E-06  -1.168842737238824E-06
  -1.213505007673330E-06  -1.259873813022699E-06  -1.308014356968395E-06
  -1.357994334340338E-06  -1.409884026281974E-06  -1.463756399049979E-06
  -1.519687206587475E-06  -1.577755097014969E-06  -1.638041723188340E-06
  -1.700631857479037E-06  -1.765613510938371E-06  -1.833078057012357E-06
  -1.903120359981604E-06  -1.975838908305977E-06  -2.051335953062019E-06
  -2.129717651666837E-06  -2.211094217090403E-06  -2.295580072766356E-06
  -2.383294013417901E-06  -2.474359372025482E-06  -2.568904193169727E-06
  -2.667061412994105E-06  -2.768969046038582E-06  -2.874770379208054E-06
  -2.984614173146347E-06  -3.098654871299617E-06  -3.217052816961794E-06
  -3.339974478606922E-06  -3.467592683824889E-06  -3.600086862188426E-06
  -3.737643297392213E-06  -3.880455389018328E-06  -4.028723924294157E-06
  -4.182657360226159E-06  -4.342472116502759E-06  -4.508392879577726E-06
  -4.680652918365121E-06  -4.859494411979514E-06  -5.045168789988905E-06
  -5.237937085655871E-06  -5.438070302659908E-06  -5.645849795817191E-06
  -5.861567666330652E-06  -6.085527172125072E-06  -6.318043153842040E-06
  -6.559442477091242E-06  -6.810064491582348E-06  -7.070261507770829E-06
  -7.340399291700141E-06  -7.620857578716898E-06  -7.912030606796284E-06
  -8.214327670208957E-06  -8.528173694318167E-06  -8.854009832301501E-06
  -9.192294084640464E-06  -9.543501942242397E-06  -9.908127054096326E-06
  -1.028668192039272E-05  -1.067969861208594E-05  -1.108772951790538E-05
  -1.151134811984371E-05  -1.195114979824038E-05  -1.240775266755189E-05
  -1.288179844400114E-05  -1.337395334631611E-05  -1.388490903080441E-05
  -1.441538356208730E-05  -1.496612242084813E-05  -1.553789954998990E-05
  -1.613151844068285E-05  -1.674781325980923E-05  -1.738765002038455E-05
  -1.805192779658680E-05  -1.874157998509527E-05  -1.945757561450081E-05
  -2.020092070460972E-05  -2.097265967754800E-05  -2.177387682263261E-05
  -2.260569781704443E-05  -2.346929130444477E-05  -2.436587053371753E-05
  -2.529669506014688E-05  -2.626307251135686E-05  -2.726636042054502E-05
  -2.830796812950053E-05  -2.938935876408773E-05  -3.051205128496338E-05
  -3.167762261633316E-05  -3.288770985577786E-05  -3.414401256816761E-05
  -3.544829516689831E-05  -3.680238938573752E-05  -3.820819684473089E-05
  -3.966769171374351E-05  -4.118292347731199E-05  -4.275601980469654E-05
  -4.438918952906707E-05  -4.608472574001213E-05  -4.784500899362841E-05
  -4.967251064465610E-05  -5.156979630531298E-05  -5.353952943557623E-05
  -5.558447506992338E-05  -5.770750368571065E-05  -5.991159521850028E-05
  -6.219984322994621E-05  -6.457545923400057E-05  -6.704177718739807E-05
  -6.960225815068219E-05  -7.226049512618514E-05  -7.502021807962334E-05
  -7.788529915232241E-05  -8.085975807123536E-05  -8.394776776415866E-05
  -8.715366018801231E-05  -9.048193237813625E-05  -9.393725272696321E-05
  -9.752446750074905E-05  -1.012486076032498E-04  -1.051148955958008E-04
  -1.091287529833007E-04  -1.132958077762041E-04  -1.176219023388757E-04
  -1.221131015351469E-04  -1.267757011821307E-04  -1.316162368240300E-04
  -1.366414928378445E-04  -1.418585118835220E-04  -1.472746047114798E-04
  -1.528973603408332E-04  -1.587346566223700E-04  -1.647946712005762E-04
  -1.710858928897576E-04  -1.776171334796920E-04  -1.843975399869669E-04
  -1.914366073686598E-04  -1.987441917155802E-04  -2.063305239431532E-04
  -2.142062239983616E-04  -2.223823156021493E-04  -2.308702415471914E-04
  -2.396818795717535E-04  -2.488295588311667E-04  -2.583260769890385E-04
  -2.681847179514308E-04  -2.784192702678079E-04  -2.890440462235338E-04
  -3.000739016496433E-04  -3.115242564765200E-04  -3.234111160589494E-04
  -3.357510933012865E-04  -3.485614316121843E-04  -3.618600287197757E-04
  -3.756654613787932E-04  -3.899970110029384E-04  -4.048746902563338E-04
  -4.203192706394680E-04  -4.363523111063228E-04  -4.529961877505959E-04
  -4.702741246001706E-04  -4.882102255606201E-04  -5.068295075498649E-04
  -5.261579348675529E-04  -5.462224548443073E-04  -5.670510348176680E-04
  -5.886727004830812E-04  -6.111175756700429E-04  -6.344169235952117E-04
  -6.586031896463469E-04  -6.837100457523211E-04  -7.097724363970446E-04
  -7.368266263364333E-04  -7.649102500802323E-04  -7.940623632021692E-04
  -8.243234955444026E-04  -8.557357063843445E-04  -8.883426416341778E-04
  -9.221895931461210E-04  -9.573235601985159E-04  -9.937933132407623E-04
  -1.031649459977490E-03  -1.070944513875057E-03  -1.111732965176581E-03
  -1.154071354513994E-03  -1.198018349209073E-03  -1.243634822358220E-03
  -1.290983934798698E-03  -1.340131220057623E-03  -1.391144672387917E-03
  -1.444094837998981E-03  -1.499054909593310E-03  -1.556100824323775E-03
  -1.615311365289832E-03  -1.676768266695028E-03  -1.740556322791350E-03
  -1.806763500740690E-03  -1.875481057526856E-03  -1.946803661056377E-03
  -2.020829515590146E-03  -2.097660491652189E-03  -2.177402260566603E-03
  -2.260164433777681E-03  -2.346060707113066E-03  -2.435209010154578E-03
  -2.527731660885396E-03  -2.623755525788114E-03  -2.723412185571887E-03
  -2.826838106712935E-03  -2.934174818996726E-03  -3.045569099256012E-03
  -3.161173161503552E-03  -3.281144853663559E-03  -3.405647861111416E-03
  -3.534851917236313E-03  -3.668933021246639E-03  -3.808073663443298E-03
  -3.952463058191793E-03  -4.102297384828553E-03  -4.257780036742990E-03
  -4.419121878881421E-03  -4.586541513924620E-03  -4.760265557395622E-03
  -4.940528921959527E-03  -5.127575111182138E-03  -5.321656523018831E-03
  -5.523034763309683E-03  -5.731980969561746E-03  -5.948776145302965E-03
  -6.173711505296809E-03  -6.407088831910253E-03  -6.649220842930540E-03
  -6.900431571130215E-03  -7.161056755881898E-03  -7.431444247126356E-03
  -7.711954421999513E-03  -8.002960614424879E-03  -8.304849557978333E-03
  -8.618021842332209E-03  -8.942892383584658E-03  -9.279890908777979E-03
  -9.629462454908019E-03  -9.992067882721559E-03  -1.036818440559542E-02
  -1.075830613378378E-02  -1.116294463431388E-02  -1.158262950680109E-02
  -1.201790897544395E-02  -1.246935049744927E-02  -1.293754138812175E-02
  -1.342308946283909E-02  -1.392662369611412E-02  -1.444879489792674E-02
  -1.499027640748573E-02  -1.555176480455535E-02  -1.613398063845377E-02
  -1.673766917479997E-02  -1.736360116005029E-02  -1.801257360382989E-02
  -1.868541057902093E-02  -1.938296403952506E-02  -2.010611465556684E-02
  -2.085577266635014E-02  -2.163287874982086E-02  -2.243840490922199E-02
  -2.327335537605862E-02  -2.413876752901161E-02  -2.503571282825559E-02
  -2.596529776454658E-02  -2.692866482234633E-02  -2.792699345614386E-02
  -2.896150107902066E-02  -3.003344406238168E-02  -3.114411874564219E-02
  -3.229486245451565E-02  -3.348705452639417E-02  -3.472211734114747E-02
  -3.600151735548665E-02  -3.732676613885027E-02  -3.869942140856346E-02
  -4.012108806180209E-02  -4.159341920165965E-02  -4.311811715436204E-02
  -4.469693447441007E-02  -4.633167493414034E-02  -4.802419449389100E-02
  -4.977640224863562E-02  -5.159026134659699E-02  -5.346778987499080E-02
  -5.541106170765188E-02  -5.742220730888225E-02  -5.950341448741923E-02
  -6.165692909395120E-02  -6.388505565511675E-02  -6.619015793639425E-02
  -6.857465942573757E-02  -7.104104372922586E-02  -7.359185486937643E-02
  -7.622969747612271E-02  -7.895723685976640E-02  -8.177719895449884E-02
  -8.469237012032398E-02  -8.770559679042093E-02  -9.081978495015676E-02
  -9.403789943308200E-02  -9.736296301833636E-02  -1.007980553129435E-01
  -1.043463114014814E-01  -1.080109202445959E-01  -1.117951228067540E-01
  -1.157022098925333E-01  -1.197355196696103E-01  -1.238984348554290E-01
  -1.281943795433393E-01  -1.326268156427493E-01  -1.371992389065848E-01
  -1.419151745180657E-01  -1.467781722075069E-01  -1.517918008685511E-01
  -1.569596426419208E-01  -1.622852864334679E-01  -1.677723208320077E-01
  -1.734243263911391E-01  -1.792448672380280E-01  -1.852374819709242E-01
  -1.914056738060633E-01  -1.977528999335560E-01  -2.042825600409064E-01
  -2.109979839619898E-01  -2.179024184086170E-01  -2.249990127413034E-01
  -2.322908037355476E-01  -2.397806992998212E-01  -2.474714611016724E-01
  -2.553656860588054E-01  -2.634657866528374E-01  -2.717739700246566E-01
  -2.802922158119402E-01  -2.890222526915908E-01  -2.979655335924977E-01
  -3.071232095473926E-01  -3.164961021565694E-01  -3.260846746409455E-01
  -3.358890014675995E-01  -3.459087365373303E-01  -3.561430799313238E-01
  -3.665907432225649E-01  -3.772499133673371E-01  -3.881182152032291E-01
  -3.991926725923783E-01  -4.104696682625754E-01  -4.219449024142888E-01
  -4.336133501787112E-01  -4.454692180309068E-01  -4.575058992828014E-01
  -4.697159288035645E-01  -4.820909371397297E-01  -4.946216042342788E-01
  -5.072976129731805E-01  -5.201076028191939E-01  -5.330391238265375E-01
  -5.460785913660594E-01  -5.592112419288149E-01  -5.724210904166435E-01
  -5.856908893709651E-01  -5.990020906358589E-01  -6.123348099980793E-01
  -6.256677953948122E-01  -6.389783993295378E-01  -6.522425561866440E-01
  -6.654347651862479E-01  -6.785280797712977E-01  -6.914941042686763E-01
  -7.043029987142190E-01  -7.169234927769094E-01  -7.293229097593793E-01
  -7.414672016887118E-01  -7.533209965420571E-01  -7.648476586743667E-01
  -7.760093635285374E-01  -7.867671877098209E-01  -7.970812154941870E-01
  -8.069106628120721E-01  -8.162140197023040E-01  -8.249492121629173E-01
  -8.330737842335543E-01  -8.405451010248710E-01  -8.473205732607662E-01
  -8.533579037161605E-01  -8.586153557129811E-01  -8.630520435768336E-01
  -8.666282446532614E-01  -8.693057321324438E-01  -8.710481275319973E-01
  -8.718212712366631E-01  -8.715936089893969E-01  -8.703365916694172E-01
  -8.680250850788876E-01  -8.646377857918255E-01  -8.601576383986426E-01
  -8.545722487109967E-01  -8.478742866797631E-01  -8.400618719315325E-01
  -8.311389339557532E-01  -8.211155380883232E-01  -8.100081675534374E-01
  -7.978399509627478E-01  -7.846408238519684E-01  -7.704476120859419E-01
  -7.553040243145703E-01  -7.392605401480224E-01  -7.223741803792422E-01
  -7.047081454578501E-01  -6.863313085587426E-01  -6.673175500419276E-01
  -6.477449209205399E-01  -6.276946241976512E-01  -6.072498046565032E-01
  -5.864941399496466E-01  -5.655102286857538E-01  -5.443777747090965E-01
  -5.231715709509016E-01  -5.019592911394797E-01  -4.807991033097611E-01
  -4.597371254600551E-01  -4.388047508505223E-01  -4.180158782864397E-01
  -3.973763831435978E-01  -3.769261731963243E-01  -3.567146742844888E-01
  -3.367901706604071E-01  -3.171995622857139E-01  -2.979881221755291E-01
  -2.791992554835697E-01  -2.608742621439488E-01  -2.430521050010933E-01
  -2.257691854660022E-01  -2.090591288321840E-01  -1.929525814651395E-01
  -1.774770221419529E-01  -1.626565898591779E-01  -1.485119304442148E-01
  -1.350600642943157E-01  -1.223142775210944E-01  -1.102840387228657E-01
  -9.897494343322100E-02  -8.838868822906132E-02  -7.852307617742893E-02
  -6.937205514594169E-02  -6.092579014937172E-02  -5.317077058961750E-02
  -4.608995285628648E-02  -3.966293832505052E-02  -3.386618631993243E-02
  -2.867326109824964E-02  -2.405511137912952E-02  -1.998038035459693E-02
  -1.641574387049205E-02  -1.332627145343662E-02  -1.067581487162811E-02
  -8.427399743191677E-03  -6.543634405577092E-03  -4.987135091180372E-03
  -3.720949570956922E-03  -2.708973038655138E-03  -1.916352821891953E-03
  -1.309876380438835E-03  -8.583366537781023E-04  -5.328690507853673E-04
  -3.072547448063068E-04  -1.581854439831054E-04  -6.548543734535839E-05
  -1.228745240985929E-05   1.484032940818336E-05   2.581790607658618E-05
   2.702870779877631E-05   2.205001319063871E-05   1.455615576870239E-05
   7.509365310603977E-06   2.626599457100642E-06   3.779134001846707E-07
  -2.775557561562891E-17   0.000000000000000E+00   0.000000000000000E+00
   0.000000000000000E+00   0.000000000000000E+00   0.000000000000000E+00
   0.000000000000000E+00   0.000000000000000E+00   0.000000000000000E+00
   0.000000000000000E+00   0.000000000000000E+00   0.000000000000000E+00
   0.000000000000000E+00   0.000000000000000E+00   0.000000000000000E+00
   0.000000000000000E+00   0.000000000000000E+00   0.000000000000000E+00
   0.000000000000000E+00   0.000000000000000E+00   0.000000000000000E+00
   0.000000000000000E+00   0.000000000000000E+00   0.000000000000000E+00
   0.000000000000000E+00   0.000000000000000E+00   0.000000000000000E+00
   0.000000000000000E+00   0.000000000000000E+00   0.000000000000000E+00
   0.000000000000000E+00   0.000000000000000E+00   0.000000000000000E+00
   0.000000000000000E+00   0.000000000000000E+00   0.000000000000000E+00
   0.000000000000000E+00   0.000000000000000E+00   0.000000000000000E+00
   0.000000000000000E+00   0.000000000000000E+00   0.000000000000000E+00
   0.000000000000000E+00   0.000000000000000E+00   0.000000000000000E+00
   0.000000000000000E+00   0.000000000000000E+00   0.000000000000000E+00
   0.000000000000000E+00   0.000000000000000E+00   0.000000000000000E+00
   0.000000000000000E+00   0.000000000000000E+00   0.000000000000000E+00
   0.000000000000000E+00   0.000000000000000E+00   0.000000000000000E+00
   0.000000000000000E+00   0.000000000000000E+00   0.000000000000000E+00
   0.000000000000000E+00   0.000000000000000E+00   0.000000000000000E+00
   0.000000000000000E+00   0.000000000000000E+00   0.000000000000000E+00
   0.000000000000000E+00   0.000000000000000E+00   0.000000000000000E+00
   0.000000000000000E+00   0.000000000000000E+00   0.000000000000000E+00
   0.000000000000000E+00   0.000000000000000E+00   0.000000000000000E+00
   0.000000000000000E+00   0.000000000000000E+00   0.000000000000000E+00
   0.000000000000000E+00   0.000000000000000E+00   0.000000000000000E+00
   0.000000000000000E+00   0.000000000000000E+00   0.000000000000000E+00
   0.000000000000000E+00   0.000000000000000E+00   0.000000000000000E+00
   0.000000000000000E+00   0.000000000000000E+00   0.000000000000000E+00
   0.000000000000000E+00   0.000000000000000E+00   0.000000000000000E+00
   0.000000000000000E+00   0.000000000000000E+00   0.000000000000000E+00
   0.000000000000000E+00   0.000000000000000E+00   0.000000000000000E+00
   0.000000000000000E+00   0.000000000000000E+00   0.000000000000000E+00
   0.000000000000000E+00   0.000000000000000E+00   0.000000000000000E+00
   0.000000000000000E+00   0.000000000000000E+00   0.000000000000000E+00
   0.000000000000000E+00   0.000000000000000E+00   0.000000000000000E+00
   0.000000000000000E+00   0.000000000000000E+00   0.000000000000000E+00
   0.000000000000000E+00   0.000000000000000E+00   0.000000000000000E+00
   0.000000000000000E+00   0.000000000000000E+00   0.000000000000000E+00
   0.000000000000000E+00   0.000000000000000E+00   0.000000000000000E+00
   0.000000000000000E+00   0.000000000000000E+00   0.000000000000000E+00
   0.000000000000000E+00   0.000000000000000E+00   0.000000000000000E+00
   0.000000000000000E+00   0.000000000000000E+00   0.000000000000000E+00
   0.000000000000000E+00   0.000000000000000E+00   0.000000000000000E+00
   0.000000000000000E+00   0.000000000000000E+00   0.000000000000000E+00
   0.000000000000000E+00   0.000000000000000E+00   0.000000000000000E+00
   0.000000000000000E+00   0.000000000000000E+00   0.000000000000000E+00
   0.000000000000000E+00   0.000000000000000E+00   0.000000000000000E+00
   0.000000000000000E+00   0.000000000000000E+00   0.000000000000000E+00
   0.000000000000000E+00   0.000000000000000E+00   0.000000000000000E+00
   0.000000000000000E+00   0.000000000000000E+00   0.000000000000000E+00
   0.000000000000000E+00   0.000000000000000E+00   0.000000000000000E+00
   0.000000000000000E+00   0.000000000000000E+00   0.000000000000000E+00
   0.000000000000000E+00   0.000000000000000E+00   0.000000000000000E+00
   0.000000000000000E+00   0.000000000000000E+00   0.000000000000000E+00
   0.000000000000000E+00   0.000000000000000E+00   0.000000000000000E+00
   0.000000000000000E+00   0.000000000000000E+00   0.000000000000000E+00
   0.000000000000000E+00   0.000000000000000E+00   0.000000000000000E+00
   0.000000000000000E+00   0.000000000000000E+00   0.000000000000000E+00
   0.000000000000000E+00   0.000000000000000E+00   0.000000000000000E+00
   0.000000000000000E+00   0.000000000000000E+00   0.000000000000000E+00
   0.000000000000000E+00   0.000000000000000E+00   0.000000000000000E+00
   0.000000000000000E+00   0.000000000000000E+00   0.000000000000000E+00
   0.000000000000000E+00   0.000000000000000E+00   0.000000000000000E+00
   0.000000000000000E+00   0.000000000000000E+00   0.000000000000000E+00
   0.000000000000000E+00   0.000000000000000E+00   0.000000000000000E+00
   0.000000000000000E+00   0.000000000000000E+00   0.000000000000000E+00
   0.000000000000000E+00   0.000000000000000E+00   0.000000000000000E+00
   0.000000000000000E+00   0.000000000000000E+00   0.000000000000000E+00
   0.000000000000000E+00   0.000000000000000E+00   0.000000000000000E+00
   0.000000000000000E+00   0.000000000000000E+00   0.000000000000000E+00
   0.000000000000000E+00   0.000000000000000E+00   0.000000000000000E+00
   0.000000000000000E+00   0.000000000000000E+00   0.000000000000000E+00
   0.000000000000000E+00   0.000000000000000E+00   0.000000000000000E+00
   0.000000000000000E+00   0.000000000000000E+00   0.000000000000000E+00
   0.000000000000000E+00   0.000000000000000E+00   0.000000000000000E+00
   0.000000000000000E+00   0.000000000000000E+00   0.000000000000000E+00
   0.000000000000000E+00   0.000000000000000E+00   0.000000000000000E+00
   0.000000000000000E+00   0.000000000000000E+00   0.000000000000000E+00
   0.000000000000000E+00   0.000000000000000E+00   0.000000000000000E+00
   0.000000000000000E+00   0.000000000000000E+00   0.000000000000000E+00
   0.000000000000000E+00   0.000000000000000E+00   0.000000000000000E+00
   0.000000000000000E+00   0.000000000000000E+00   0.000000000000000E+00
   0.000000000000000E+00   0.000000000000000E+00   0.000000000000000E+00
   0.000000000000000E+00   0.000000000000000E+00   0.000000000000000E+00
   0.000000000000000E+00   0.000000000000000E+00   0.000000000000000E+00
   0.000000000000000E+00   0.000000000000000E+00   0.000000000000000E+00
   0.000000000000000E+00   0.000000000000000E+00   0.000000000000000E+00
   0.000000000000000E+00   0.000000000000000E+00   0.000000000000000E+00
   0.000000000000000E+00   0.000000000000000E+00   0.000000000000000E+00
   0.000000000000000E+00   0.000000000000000E+00   0.000000000000000E+00
   0.000000000000000E+00   0.000000000000000E+00   0.000000000000000E+00
   0.000000000000000E+00   0.000000000000000E+00   0.000000000000000E+00
   0.000000000000000E+00   0.000000000000000E+00   0.000000000000000E+00
   0.000000000000000E+00   0.000000000000000E+00   0.000000000000000E+00
   0.000000000000000E+00   0.000000000000000E+00   0.000000000000000E+00
   0.000000000000000E+00   0.000000000000000E+00   0.000000000000000E+00
   0.000000000000000E+00   0.000000000000000E+00   0.000000000000000E+00
   0.000000000000000E+00   0.000000000000000E+00   0.000000000000000E+00
   0.000000000000000E+00   0.000000000000000E+00   0.000000000000000E+00
   0.000000000000000E+00   0.000000000000000E+00   0.000000000000000E+00
   0.000000000000000E+00   0.000000000000000E+00   0.000000000000000E+00
   0.000000000000000E+00   0.000000000000000E+00   0.000000000000000E+00
   0.000000000000000E+00   0.000000000000000E+00   0.000000000000000E+00
   0.000000000000000E+00   0.000000000000000E+00   0.000000000000000E+00
   0.000000000000000E+00   0.000000000000000E+00   0.000000000000000E+00
   0.000000000000000E+00   0.000000000000000E+00   0.000000000000000E+00
   0.000000000000000E+00   0.000000000000000E+00   0.000000000000000E+00
   0.000000000000000E+00   0.000000000000000E+00   0.000000000000000E+00
   0.000000000000000E+00   0.000000000000000E+00   0.000000000000000E+00
   0.000000000000000E+00   0.000000000000000E+00   0.000000000000000E+00
   0.000000000000000E+00   0.000000000000000E+00   0.000000000000000E+00
   0.000000000000000E+00   0.000000000000000E+00   0.000000000000000E+00
   0.000000000000000E+00
      </PP_QIJL.1.3.1>
      <PP_QIJL.1.4.1 first_index="1" second_index="4" composite_index="7" angular_momentum="1" size="1129">
  -6.901844496509942E-12  -7.165577753738653E-12  -7.439388785130731E-12
  -7.723662682544242E-12  -8.018799252965026E-12  -8.325213580800973E-12
  -8.643336611662776E-12  -8.973615758452106E-12  -9.316515530609510E-12
  -9.672518187407352E-12  -1.004212441620607E-11  -1.042585403662818E-11
  -1.082424673164010E-11  -1.123786280657004E-11  -1.166728397712957E-11
  -1.211311418754684E-11  -1.257598045996252E-11  -1.305653377628279E-11
  -1.355544999372954E-11  -1.407343079537587E-11  -1.461120467700301E-11
  -1.516952797166736E-11  -1.574918591341815E-11  -1.635099374166177E-11
  -1.697579784772629E-11  -1.762447696523810E-11  -1.829794340598562E-11
  -1.899714434300751E-11  -1.972306314271039E-11  -2.047672074788938E-11
  -2.125917711359648E-11  -2.207153269787650E-11  -2.291493000946682E-11
  -2.379055521463790E-11  -2.469963980543445E-11  -2.564346233166309E-11
  -2.662335019906289E-11  -2.764068153618764E-11  -2.869688713262513E-11
  -2.979345245128013E-11  -3.093191971754980E-11  -3.211389008833149E-11
  -3.334102590391215E-11  -3.461505302590694E-11  -3.593776326453551E-11
  -3.731101689864834E-11  -3.873674529204916E-11  -4.021695360979197E-11
  -4.175372363827282E-11  -4.334921671308346E-11  -4.500567675874315E-11
  -4.672543344458555E-11  -4.851090546123762E-11  -5.036460392229933E-11
  -5.228913589600908E-11  -5.428720807185924E-11  -5.636163056732193E-11
  -5.851532088003660E-11  -6.075130799101828E-11  -6.307273662465835E-11
  -6.548287167150677E-11  -6.798510278005894E-11  -7.058294912400310E-11
  -7.328006435163340E-11  -7.608024172439083E-11  -7.898741945175592E-11
  -8.200568623000001E-11  -8.513928699258215E-11  -8.839262888027965E-11
  -9.177028743945033E-11  -9.527701305714024E-11  -9.891773764209163E-11
  -1.026975815610440E-10  -1.066218608400846E-10  -1.106960946411785E-10
  -1.149260130243878E-10  -1.193175650067040E-10  -1.238769269288221E-10
  -1.286105111416252E-10  -1.335249750245988E-10  -1.386272303488522E-10
  -1.439244529979233E-10  -1.494240930600310E-10  -1.551338853059744E-10
  -1.610618600674118E-10  -1.672163545308186E-10  -1.736060244630114E-10
  -1.802398563847254E-10  -1.871271802093679E-10  -1.942776823647250E-10
  -2.017014194160691E-10  -2.094088322098363E-10  -2.174107605577591E-10
  -2.257184584821072E-10  -2.343436100434805E-10  -2.432983457734086E-10
  -2.525952597348752E-10  -2.622474272347546E-10  -2.722684232130766E-10
  -2.826723413349813E-10  -2.934738138122065E-10  -3.046880319820019E-10
  -3.163307676723960E-10  -3.284183953838707E-10  -3.409679153186469E-10
  -3.539969772899490E-10  -3.675239055449011E-10  -3.815677245359444E-10
  -3.961481856770324E-10  -4.112857951222335E-10  -4.270018426057961E-10
  -4.433184313842569E-10  -4.602585093226893E-10  -4.778459011688133E-10
  -4.961053420603667E-10  -5.150625123128427E-10  -5.347440735365420E-10
  -5.551777061337233E-10  -5.763921482285824E-10  -5.984172360848298E-10
  -6.212839460676815E-10  -6.450244382093113E-10  -6.696721014390072E-10
  -6.952616005416617E-10  -7.218289249106310E-10  -7.494114391635233E-10
  -7.780479356921157E-10  -8.077786892202952E-10  -8.386455134467575E-10
  -8.706918198521329E-10  -9.039626787532176E-10  -9.385048826902226E-10
  -9.743670122361419E-10  -1.011599504320824E-09  -1.050254723165839E-09
  -1.090387033929856E-09  -1.132052879168179E-09  -1.175310858213921E-09
  -1.220221809592460E-09  -1.266848896585131E-09  -1.315257696062405E-09
  -1.365516290711579E-09  -1.417695364788630E-09  -1.471868303528908E-09
  -1.528111296356502E-09  -1.586503444037375E-09  -1.647126869927038E-09
  -1.710066835469176E-09  -1.775411860107647E-09  -1.843253845780578E-09
  -1.913688206171504E-09  -1.986814000899491E-09  -2.062734074836820E-09
  -2.141555202750273E-09  -2.223388239469389E-09  -2.308348275792858E-09
  -2.396554800352399E-09  -2.488131867661694E-09  -2.583208272586730E-09
  -2.681917731482968E-09  -2.784399070253980E-09  -2.890796419596174E-09
  -3.001259417704079E-09  -3.115943420721314E-09  -3.235009721233264E-09
  -3.358625775108560E-09  -3.486965437008712E-09  -3.620209204896722E-09
  -3.758544473888839E-09  -3.902165799806404E-09  -4.051275172798196E-09
  -4.206082301418581E-09  -4.366804907560403E-09  -4.533669032657846E-09
  -4.706909355589756E-09  -4.886769522730259E-09  -5.073502490611449E-09
  -5.267370881679275E-09  -5.468647353643613E-09  -5.677614982941630E-09
  -5.894567662853603E-09  -6.119810516831608E-09  -6.353660327621650E-09
  -6.596445982783314E-09  -6.848508937233262E-09  -7.110203693462830E-09
  -7.381898300105754E-09  -7.663974869556298E-09  -7.956830115366414E-09
  -8.260875910177500E-09  -8.576539864970997E-09  -8.904265930453348E-09
  -9.244515021419915E-09  -9.597765664976856E-09  -9.964514673532246E-09
  -1.034527784350240E-08  -1.074059068071714E-08  -1.115100915354280E-08
  -1.157711047478308E-08  -1.201949391345720E-08  -1.247878163759611E-08
  -1.295561958924356E-08  -1.345067839289081E-08  -1.396465429862380E-08
  -1.449827016130870E-08  -1.505227645719225E-08  -1.562745233934797E-08
  -1.622460673345077E-08  -1.684457947542226E-08  -1.748824249254618E-08
  -1.815650102971418E-08  -1.885029492252822E-08  -1.957059991904756E-08
  -2.031842905204098E-08  -2.109483406367332E-08  -2.190090688462886E-08
  -2.273778116975388E-08  -2.360663389237509E-08  -2.450868699953805E-08
  -2.544520913049253E-08  -2.641751740084058E-08  -2.742697925485843E-08
  -2.847501438859398E-08  -2.956309674644690E-08  -3.069275659403783E-08
  -3.186558267028029E-08  -3.308322442168516E-08  -3.434739432203493E-08
  -3.565987028069340E-08  -3.702249814293611E-08  -3.843719428581572E-08
  -3.990594831321666E-08  -4.143082585388373E-08  -4.301397146636319E-08
  -4.465761165493979E-08  -4.636405800080850E-08  -4.813571041288890E-08
  -4.997506050284712E-08  -5.188469508907596E-08  -5.386729983455848E-08
  -5.592566302372805E-08  -5.806267948364157E-08  -6.028135465497148E-08
  -6.258480881854772E-08  -6.497628148338875E-08  -6.745913594239193E-08
  -7.003686400209068E-08  -7.271309089312596E-08  -7.549158036833921E-08
  -7.837623999565345E-08  -8.137112665318364E-08  -8.448045223430552E-08
  -8.770858957070028E-08  -9.106007858170675E-08  -9.453963265862471E-08
  -9.815214529294567E-08  -1.019026969578320E-07  -1.057965622525165E-07
  -1.098392173196704E-07  -1.140363475461658E-07  -1.183938555580596E-07
  -1.229178695210407E-07  -1.276147517580072E-07  -1.324911076958926E-07
  -1.375537951543155E-07  -1.428099339891141E-07  -1.482669161043211E-07
  -1.539324158466548E-07  -1.598144007971391E-07  -1.659211429750241E-07
  -1.722612304697552E-07  -1.788435795173457E-07  -1.856774470381266E-07
  -1.927724436535001E-07  -2.001385471999943E-07  -2.077861167596146E-07
  -2.157259072262177E-07  -2.239690844283769E-07  -2.325272408300035E-07
  -2.414124118307908E-07  -2.506370926893876E-07  -2.602142560930996E-07
  -2.701573703988002E-07  -2.804804185707009E-07  -2.911979178415933E-07
  -3.023249401251937E-07  -3.138771332082899E-07  -3.258707427524592E-07
  -3.383226351362937E-07  -3.512503211702308E-07  -3.646719807173088E-07
  -3.786064882544658E-07  -3.930734394102833E-07  -4.080931785164866E-07
  -4.236868272119081E-07  -4.398763141391080E-07  -4.566844057753947E-07
  -4.741347384415489E-07  -4.922518515332474E-07  -5.110612220218701E-07
  -5.305893002731636E-07  -5.508635472341020E-07  -5.719124730401762E-07
  -5.937656770973668E-07  -6.164538896951113E-07  -6.400090152087174E-07
  -6.644641769519342E-07  -6.898537637426721E-07  -7.162134782473024E-07
  -7.435803871714410E-07  -7.719929733677156E-07  -8.014911899336996E-07
  -8.321165163760882E-07  -8.639120169197751E-07  -8.969224010440961E-07
  -9.311940863308125E-07  -9.667752637125126E-07  -1.003715965212824E-06
  -1.042068134273580E-06  -1.081885698767830E-06  -1.123224646801053E-06
  -1.166143105407203E-06  -1.210701422249772E-06  -1.256962250443065E-06
  -1.304990636612305E-06  -1.354854112316356E-06  -1.406622788961611E-06
  -1.460369456339966E-06  -1.516169684929438E-06  -1.574101932100826E-06
  -1.634247652379807E-06  -1.696691411918770E-06  -1.761521007339299E-06
  -1.828827589112324E-06  -1.898705789648613E-06  -1.971253856279451E-06
  -2.046573789314550E-06  -2.124771485370099E-06  -2.205956886168965E-06
  -2.290244133020653E-06  -2.377751727199825E-06  -2.468602696444043E-06
  -2.562924767810642E-06  -2.660850547129619E-06  -2.762517705305188E-06
  -2.868069171731928E-06  -2.977653335089267E-06  -3.091424251801082E-06
  -3.209541862453241E-06  -3.332172216466427E-06  -3.459487705347195E-06
  -3.591667304837750E-06  -3.728896826307034E-06  -3.871369177735988E-06
  -4.019284634658381E-06  -4.172851121444322E-06  -4.332284503310578E-06
  -4.497808889477499E-06  -4.669656947888301E-06  -4.848070231938194E-06
  -5.033299519664805E-06  -5.225605165878419E-06  -5.425257467729547E-06
  -5.632537044211536E-06  -5.847735230147880E-06  -6.071154485200121E-06
  -6.303108818475841E-06  -6.543924229335417E-06  -6.793939164998286E-06
  -7.053504995612233E-06  -7.322986507426675E-06  -7.602762414775562E-06
  -7.893225891580910E-06  -8.194785123117940E-06  -8.507863878815024E-06
  -8.832902106891569E-06  -9.170356551659764E-06  -9.520701394354294E-06
  -9.884428918392279E-06  -1.026205019997755E-05  -1.065409582503155E-05
  -1.106111663343718E-05  -1.148368449164279E-05  -1.192239309470394E-05
  -1.237785879887729E-05  -1.285072148593458E-05  -1.334164546039632E-05
  -1.385132038094591E-05  -1.438046222730811E-05  -1.492981430395721E-05
  -1.550014828203473E-05  -1.609226528094676E-05  -1.670699699113832E-05
  -1.734520683960640E-05  -1.800779119978127E-05  -1.869568064744847E-05
  -1.940984126448844E-05  -2.015127599219255E-05  -2.092102603610956E-05
  -2.172017232431263E-05  -2.254983702114603E-05  -2.341118509855690E-05
  -2.430542596717471E-05  -2.523381516943614E-05  -2.619765613704730E-05
  -2.719830201531351E-05  -2.823715755677497E-05  -2.931568108682501E-05
  -3.043538654404294E-05  -3.159784559802981E-05  -3.280468984771189E-05
  -3.405761310316668E-05  -3.535837375407790E-05  -3.670879722816041E-05
  -3.811077854291198E-05  -3.956628495424210E-05  -4.107735870561348E-05
  -4.264611988154369E-05  -4.427476936933430E-05  -4.596559193318243E-05
  -4.772095940488262E-05  -4.954333399550695E-05  -5.143527173267236E-05
  -5.339942602806243E-05  -5.543855138018846E-05  -5.755550721742048E-05
  -5.975326188661012E-05  -6.203489679278245E-05  -6.440361069555179E-05
  -6.686272416821340E-05  -6.941568422556447E-05  -7.206606912685916E-05
  -7.481759336041386E-05  -7.767411281675107E-05  -8.063963015730131E-05
  -8.371830038604854E-05  -8.691443663169254E-05  -9.023251614823328E-05
  -9.367718654218380E-05  -9.725327223485056E-05  -1.009657811685426E-04
  -1.048199117657418E-04  -1.088210601508283E-04  -1.129748276439938E-04
  -1.172870285377086E-04  -1.217636981660908E-04  -1.264111012782598E-04
  -1.312357407269080E-04  -1.362443664838618E-04  -1.414439849948372E-04
  -1.468418688859275E-04  -1.524455670349801E-04  -1.582629150213767E-04
  -1.643020459682501E-04  -1.705714017917113E-04  -1.770797448721838E-04
  -1.838361701634310E-04  -1.908501177555089E-04  -1.981313859083931E-04
  -2.056901445736871E-04  -2.135369494224154E-04  -2.216827563975311E-04
  -2.301389368104947E-04  -2.389172930018982E-04  -2.480300745869561E-04
  -2.574899953071649E-04  -2.673102505105510E-04  -2.775045352834163E-04
  -2.880870632574185E-04  -2.990725861167364E-04  -3.104764138307906E-04
  -3.223144356390587E-04  -3.346031418152504E-04  -3.473596462392957E-04
  -3.606017098063833E-04  -3.743477647034856E-04  -3.886169395846780E-04
  -4.034290856777945E-04  -4.188048038560912E-04  -4.347654727095179E-04
  -4.513332776518020E-04  -4.685312411002886E-04  -4.863832537672275E-04
  -5.049141071020667E-04  -5.241495269260835E-04  -5.441162083016543E-04
  -5.648418516802382E-04  -5.863552003744027E-04  -6.086860794008362E-04
  -6.318654357427641E-04  -6.559253800819757E-04  -6.808992300519508E-04
  -7.068215550657224E-04  -7.337282227734341E-04  -7.616564472066973E-04
  -7.906448386683078E-04  -8.207334554281143E-04  -8.519638572875687E-04
  -8.843791610774186E-04  -9.180240981552555E-04  -9.529450739714153E-04
  -9.891902297741301E-04  -1.026809506526727E-03  -1.065854711112216E-03
  -1.106379584902527E-03  -1.148439874772269E-03  -1.192093406639104E-03
  -1.237400161615224E-03  -1.284422354857016E-03  -1.333224517202331E-03
  -1.383873579687458E-03  -1.436438961038517E-03  -1.490992658234278E-03
  -1.547609340240738E-03  -1.606366445019775E-03  -1.667344279917409E-03
  -1.730626125539794E-03  -1.796298343227833E-03  -1.864450486244253E-03
  -1.935175414789568E-03  -2.008569414966505E-03  -2.084732321814982E-03
  -2.163767646542867E-03  -2.245782708080374E-03  -2.330888769088911E-03
  -2.419201176557832E-03  -2.510839507125541E-03  -2.605927717263869E-03
  -2.704594298467513E-03  -2.806972437592826E-03  -2.913200182492770E-03
  -3.023420613097388E-03  -3.137782018091227E-03  -3.256438077341780E-03
  -3.379548050234483E-03  -3.507276970072375E-03  -3.639795844699552E-03
  -3.777281863509666E-03  -3.919918611001624E-03  -4.067896287045718E-03
  -4.221411934024374E-03  -4.380669671011843E-03  -4.545880935157267E-03
  -4.717264730435586E-03  -4.895047883929534E-03  -5.079465309805069E-03
  -5.270760281140810E-03  -5.469184709769727E-03  -5.674999434288483E-03
  -5.888474516386435E-03  -6.109889545641769E-03  -6.339533952927407E-03
  -6.577707332563342E-03  -6.824719773345410E-03  -7.080892198572297E-03
  -7.346556715184267E-03  -7.622056972116467E-03  -7.907748527958764E-03
  -8.203999228001030E-03  -8.511189590729121E-03  -8.829713203820540E-03
  -9.159977129671665E-03  -9.502402320469054E-03  -9.857424042796360E-03
  -1.022549231174465E-02  -1.060707233446856E-02  -1.100264496310310E-02
  -1.141270715692422E-02  -1.183777245360446E-02  -1.227837144937707E-02
  -1.273505228788365E-02  -1.320838115743672E-02  -1.369894279638233E-02
  -1.420734100619761E-02  -1.473419917190339E-02  -1.528016078931272E-02
  -1.584588999857386E-02  -1.643207212339550E-02  -1.703941421527086E-02
  -1.766864560193518E-02  -1.832051843920767E-02  -1.899580826527621E-02
  -1.969531455638404E-02  -2.041986128277440E-02  -2.117029746363276E-02
  -2.194749771964767E-02  -2.275236282168099E-02  -2.358582023389866E-02
  -2.444882464956788E-02  -2.534235851756676E-02  -2.626743255748490E-02
  -2.722508626101577E-02  -2.821638837714881E-02  -2.924243737846923E-02
  -3.030436190565636E-02  -3.140332118704388E-02  -3.254050542986314E-02
  -3.371713617953283E-02  -3.493446664308858E-02  -3.619378197255631E-02
  -3.749639950377148E-02  -3.884366894582428E-02  -4.023697251597268E-02
  -4.167772501451121E-02  -4.316737383370546E-02  -4.470739889451122E-02
  -4.629931250438211E-02  -4.794465912903656E-02  -4.964501507060248E-02
  -5.140198804408179E-02  -5.321721664358366E-02  -5.509236968925912E-02
  -5.702914544533093E-02  -5.902927069906051E-02  -6.109449968991029E-02
  -6.322661287756721E-02  -6.542741553687557E-02  -6.769873616709242E-02
  -7.004242470223182E-02  -7.246035050859449E-02  -7.495440015490480E-02
  -7.752647493978597E-02  -8.017848816060671E-02  -8.291236210703366E-02
  -8.573002476191879E-02  -8.863340619145316E-02  -9.162443460582829E-02
  -9.470503207096841E-02  -9.787710985124524E-02  -1.011425633624567E-01
  -1.045032667137618E-01  -1.079610668167221E-01  -1.115177770391058E-01
  -1.151751703807011E-01  -1.189349721480381E-01  -1.227988521046796E-01
  -1.267684160736139E-01  -1.308451969682695E-01  -1.350306452288339E-01
  -1.393261186408591E-01  -1.437328715136534E-01  -1.482520431966836E-01
  -1.528846459131723E-01  -1.576315518913383E-01  -1.624934797752506E-01
  -1.674709802991740E-01  -1.725644212115490E-01  -1.777739714374038E-01
  -1.830995844711664E-01  -1.885409809954430E-01  -1.940976307255287E-01
  -1.997687334841932E-01  -2.055531995166707E-01  -2.114496290619396E-01
  -2.174562912031963E-01  -2.235711020281178E-01  -2.297916021380383E-01
  -2.361149335545678E-01  -2.425378160826459E-01  -2.490565232003986E-01
  -2.556668575587095E-01  -2.623641261870375E-01  -2.691431155167707E-01
  -2.759980663494417E-01  -2.829226489142865E-01  -2.899099381781158E-01
  -2.969523895901562E-01  -3.040418154654174E-01  -3.111693622323217E-01
  -3.183254887935582E-01  -3.254999462735119E-01  -3.326817594509420E-01
  -3.398592102016983E-01  -3.470198233031229E-01  -3.541503549789688E-01
  -3.612367845911008E-01  -3.682643099114950E-01  -3.752173464347253E-01
  -3.820795312169146E-01  -3.888337317513023E-01  -3.954620604127562E-01
  -4.019458950229308E-01  -4.082659061035657E-01  -4.144020913969227E-01
  -4.203338182383798E-01  -4.260398743659055E-01  -4.314985277432197E-01
  -4.366875959566453E-01  -4.415845257187094E-01  -4.461664829727984E-01
  -4.504104540412437E-01  -4.542933581923122E-01  -4.577921719180380E-01
  -4.608840651129400E-01  -4.635465492215199E-01  -4.657576372783853E-01
  -4.674960155970617E-01  -4.687412266704450E-01  -4.694738626259532E-01
  -4.696757683304395E-01  -4.693302529629041E-01  -4.684223085663924E-01
  -4.669388337540601E-01  -4.648688603787486E-01  -4.622037805817020E-01
  -4.589375712163507E-01  -4.550670122003848E-01  -4.505918948878941E-01
  -4.455152160785464E-01  -4.398433527997057E-01  -4.335862125185372E-01
  -4.267573529749758E-01  -4.193740653853259E-01  -4.114574143645258E-01
  -4.030322275695823E-01  -3.941270277960628E-01  -3.847739000851242E-01
  -3.750082863438665E-01  -3.648687000722142E-01  -3.543963540528692E-01
  -3.436346943260682E-01  -3.326288344683954E-01  -3.214248851557628E-01
  -3.100691752454735E-01  -2.986073621910263E-01  -2.870834315332953E-01
  -2.755385875169155E-01  -2.640100395800730E-01  -2.525296925710561E-01
  -2.411227520591833E-01  -2.298062600227032E-01  -2.185875804905106E-01
  -2.074695939887081E-01  -1.964737354949177E-01  -1.856265462380837E-01
  -1.749538295802277E-01  -1.644805175482411E-01  -1.542305383712805E-01
  -1.442266860285107E-01  -1.344904928730823E-01  -1.250421064540483E-01
  -1.159001717069806E-01  -1.070817197246534E-01  -9.860206434973162E-02
  -9.047470785003231E-02  -8.271125694191317E-02  -7.532135041676058E-02
  -6.831259959758679E-02  -6.169054280571751E-02  -5.545861494970028E-02
  -4.961813325728759E-02  -4.416830006632322E-02  -3.910622342932979E-02
  -3.442695615785424E-02  -3.012355371744518E-02  -2.618715118417020E-02
  -2.260705923620965E-02  -1.937087889728323E-02  -1.646463447305238E-02
  -1.387292383028044E-02  -1.157908486574058E-02  -9.565376697637518E-03
  -7.813173874095747E-03  -6.303171045906747E-03  -5.015597610794231E-03
  -3.930434825762968E-03  -3.027636344686835E-03  -2.287352294135625E-03
  -1.690151365797227E-03  -1.217232675200575E-03  -8.506280680886102E-04
  -5.733909554851147E-04  -3.697683480384656E-04  -2.253530009437565E-04
  -1.272127269039691E-04  -6.399422403131905E-05  -2.599909353612206E-05
  -5.230091529459524E-06   4.593946720116149E-06   8.055672312545781E-06
   8.090057261871120E-06   6.287019126853532E-06   3.929876826180845E-06
   1.905898855548982E-06   6.212186157636412E-07   8.239025675593759E-08
  -1.040834085586084E-17   0.000000000000000E+00   0.000000000000000E+00
   0.000000000000000E+00   0.000000000000000E+00   0.000000000000000E+00
   0.000000000000000E+00   0.000000000000000E+00   0.000000000000000E+00
   0.000000000000000E+00   0.000000000000000E+00   0.000000000000000E+00
   0.000000000000000E+00   0.000000000000000E+00   0.000000000000000E+00
   0.000000000000000E+00   0.000000000000000E+00   0.000000000000000E+00
   0.000000000000000E+00   0.000000000000000E+00   0.000000000000000E+00
   0.000000000000000E+00   0.000000000000000E+00   0.000000000000000E+00
   0.000000000000000E+00   0.000000000000000E+00   0.000000000000000E+00
   0.000000000000000E+00   0.000000000000000E+00   0.000000000000000E+00
   0.000000000000000E+00   0.000000000000000E+00   0.000000000000000E+00
   0.000000000000000E+00   0.000000000000000E+00   0.000000000000000E+00
   0.000000000000000E+00   0.000000000000000E+00   0.000000000000000E+00
   0.000000000000000E+00   0.000000000000000E+00   0.000000000000000E+00
   0.000000000000000E+00   0.000000000000000E+00   0.000000000000000E+00
   0.000000000000000E+00   0.000000000000000E+00   0.000000000000000E+00
   0.000000000000000E+00   0.000000000000000E+00   0.000000000000000E+00
   0.000000000000000E+00   0.000000000000000E+00   0.000000000000000E+00
   0.000000000000000E+00   0.000000000000000E+00   0.000000000000000E+00
   0.000000000000000E+00   0.000000000000000E+00   0.000000000000000E+00
   0.000000000000000E+00   0.000000000000000E+00   0.000000000000000E+00
   0.000000000000000E+00   0.000000000000000E+00   0.000000000000000E+00
   0.000000000000000E+00   0.000000000000000E+00   0.000000000000000E+00
   0.000000000000000E+00   0.000000000000000E+00   0.000000000000000E+00
   0.000000000000000E+00   0.000000000000000E+00   0.000000000000000E+00
   0.000000000000000E+00   0.000000000000000E+00   0.000000000000000E+00
   0.000000000000000E+00   0.000000000000000E+00   0.000000000000000E+00
   0.000000000000000E+00   0.000000000000000E+00   0.000000000000000E+00
   0.000000000000000E+00   0.000000000000000E+00   0.000000000000000E+00
   0.000000000000000E+00   0.000000000000000E+00   0.000000000000000E+00
   0.000000000000000E+00   0.000000000000000E+00   0.000000000000000E+00
   0.000000000000000E+00   0.000000000000000E+00   0.000000000000000E+00
   0.000000000000000E+00   0.000000000000000E+00   0.000000000000000E+00
   0.000000000000000E+00   0.000000000000000E+00   0.000000000000000E+00
   0.000000000000000E+00   0.000000000000000E+00   0.000000000000000E+00
   0.000000000000000E+00   0.000000000000000E+00   0.000000000000000E+00
   0.000000000000000E+00   0.000000000000000E+00   0.000000000000000E+00
   0.000000000000000E+00   0.000000000000000E+00   0.000000000000000E+00
   0.000000000000000E+00   0.000000000000000E+00   0.000000000000000E+00
   0.000000000000000E+00   0.000000000000000E+00   0.000000000000000E+00
   0.000000000000000E+00   0.000000000000000E+00   0.000000000000000E+00
   0.000000000000000E+00   0.000000000000000E+00   0.000000000000000E+00
   0.000000000000000E+00   0.000000000000000E+00   0.000000000000000E+00
   0.000000000000000E+00   0.000000000000000E+00   0.000000000000000E+00
   0.000000000000000E+00   0.000000000000000E+00   0.000000000000000E+00
   0.000000000000000E+00   0.000000000000000E+00   0.000000000000000E+00
   0.000000000000000E+00   0.000000000000000E+00   0.000000000000000E+00
   0.000000000000000E+00   0.000000000000000E+00   0.000000000000000E+00
   0.000000000000000E+00   0.000000000000000E+00   0.000000000000000E+00
   0.000000000000000E+00   0.000000000000000E+00   0.000000000000000E+00
   0.000000000000000E+00   0.000000000000000E+00   0.000000000000000E+00
   0.000000000000000E+00   0.000000000000000E+00   0.000000000000000E+00
   0.000000000000000E+00   0.000000000000000E+00   0.000000000000000E+00
   0.000000000000000E+00   0.000000000000000E+00   0.000000000000000E+00
   0.000000000000000E+00   0.000000000000000E+00   0.000000000000000E+00
   0.000000000000000E+00   0.000000000000000E+00   0.000000000000000E+00
   0.000000000000000E+00   0.000000000000000E+00   0.000000000000000E+00
   0.000000000000000E+00   0.000000000000000E+00   0.000000000000000E+00
   0.000000000000000E+00   0.000000000000000E+00   0.000000000000000E+00
   0.000000000000000E+00   0.000000000000000E+00   0.000000000000000E+00
   0.000000000000000E+00   0.000000000000000E+00   0.000000000000000E+00
   0.000000000000000E+00   0.000000000000000E+00   0.000000000000000E+00
   0.000000000000000E+00   0.000000000000000E+00   0.000000000000000E+00
   0.000000000000000E+00   0.000000000000000E+00   0.000000000000000E+00
   0.000000000000000E+00   0.000000000000000E+00   0.000000000000000E+00
   0.000000000000000E+00   0.000000000000000E+00   0.000000000000000E+00
   0.000000000000000E+00   0.000000000000000E+00   0.000000000000000E+00
   0.000000000000000E+00   0.000000000000000E+00   0.000000000000000E+00
   0.000000000000000E+00   0.000000000000000E+00   0.000000000000000E+00
   0.000000000000000E+00   0.000000000000000E+00   0.000000000000000E+00
   0.000000000000000E+00   0.000000000000000E+00   0.000000000000000E+00
   0.000000000000000E+00   0.000000000000000E+00   0.000000000000000E+00
   0.000000000000000E+00   0.000000000000000E+00   0.000000000000000E+00
   0.000000000000000E+00   0.000000000000000E+00   0.000000000000000E+00
   0.000000000000000E+00   0.000000000000000E+00   0.000000000000000E+00
   0.000000000000000E+00   0.000000000000000E+00   0.000000000000000E+00
   0.000000000000000E+00   0.000000000000000E+00   0.000000000000000E+00
   0.000000000000000E+00   0.000000000000000E+00   0.000000000000000E+00
   0.000000000000000E+00   0.000000000000000E+00   0.000000000000000E+00
   0.000000000000000E+00   0.000000000000000E+00   0.000000000000000E+00
   0.000000000000000E+00   0.000000000000000E+00   0.000000000000000E+00
   0.000000000000000E+00   0.000000000000000E+00   0.000000000000000E+00
   0.000000000000000E+00   0.000000000000000E+00   0.000000000000000E+00
   0.000000000000000E+00   0.000000000000000E+00   0.000000000000000E+00
   0.000000000000000E+00   0.000000000000000E+00   0.000000000000000E+00
   0.000000000000000E+00   0.000000000000000E+00   0.000000000000000E+00
   0.000000000000000E+00   0.000000000000000E+00   0.000000000000000E+00
   0.000000000000000E+00   0.000000000000000E+00   0.000000000000000E+00
   0.000000000000000E+00   0.000000000000000E+00   0.000000000000000E+00
   0.000000000000000E+00   0.000000000000000E+00   0.000000000000000E+00
   0.000000000000000E+00   0.000000000000000E+00   0.000000000000000E+00
   0.000000000000000E+00   0.000000000000000E+00   0.000000000000000E+00
   0.000000000000000E+00   0.000000000000000E+00   0.000000000000000E+00
   0.000000000000000E+00   0.000000000000000E+00   0.000000000000000E+00
   0.000000000000000E+00   0.000000000000000E+00   0.000000000000000E+00
   0.000000000000000E+00   0.000000000000000E+00   0.000000000000000E+00
   0.000000000000000E+00   0.000000000000000E+00   0.000000000000000E+00
   0.000000000000000E+00   0.000000000000000E+00   0.000000000000000E+00
   0.000000000000000E+00   0.000000000000000E+00   0.000000000000000E+00
   0.000000000000000E+00   0.000000000000000E+00   0.000000000000000E+00
   0.000000000000000E+00   0.000000000000000E+00   0.000000000000000E+00
   0.000000000000000E+00   0.000000000000000E+00   0.000000000000000E+00
   0.000000000000000E+00   0.000000000000000E+00   0.000000000000000E+00
   0.000000000000000E+00   0.000000000000000E+00   0.000000000000000E+00
   0.000000000000000E+00   0.000000000000000E+00   0.000000000000000E+00
   0.000000000000000E+00   0.000000000000000E+00   0.000000000000000E+00
   0.000000000000000E+00   0.000000000000000E+00   0.000000000000000E+00
   0.000000000000000E+00   0.000000000000000E+00   0.000000000000000E+00
   0.000000000000000E+00   0.000000000000000E+00   0.000000000000000E+00
   0.000000000000000E+00   0.000000000000000E+00   0.000000000000000E+00
   0.000000000000000E+00   0.000000000000000E+00   0.000000000000000E+00
   0.000000000000000E+00   0.000000000000000E+00   0.000000000000000E+00
   0.000000000000000E+00   0.000000000000000E+00   0.000000000000000E+00
   0.000000000000000E+00   0.000000000000000E+00   0.000000000000000E+00
   0.000000000000000E+00
      </PP_QIJL.1.4.1>
      <PP_QIJL.2.2.0 first_index="2" second_index="2" composite_index="3" angular_momentum="0" size="1129">
  -2.319374283858918E-08  -2.378089522243259E-08  -2.438291143904816E-08
  -2.500016776812361E-08  -2.563305001491089E-08  -2.628195375136667E-08
  -2.694728456339763E-08  -2.762945830436487E-08  -2.832890135500539E-08
  -2.904605088993414E-08  -2.978135515089191E-08  -3.053527372691099E-08
  -3.130827784157310E-08  -3.210085064753925E-08  -3.291348752853592E-08
  -3.374669640898541E-08  -3.460099807147524E-08  -3.547692648226398E-08
  -3.637502912502712E-08  -3.729586734305230E-08  -3.824001669009654E-08
  -3.920806729012596E-08  -4.020062420616219E-08  -4.121830781846616E-08
  -4.226175421229576E-08  -4.333161557547925E-08  -4.442856060605382E-08
  -4.555327493022303E-08  -4.670646153089532E-08  -4.788884118707091E-08
  -4.910115292435134E-08  -5.034415447685446E-08  -5.161862276082233E-08
  -5.292535436021857E-08  -5.426516602461913E-08  -5.563889517970647E-08
  -5.704740045068732E-08  -5.849156219896102E-08  -5.997228307237328E-08
  -6.149048856940008E-08  -6.304712761761326E-08  -6.464317316679059E-08
  -6.627962279704048E-08  -6.795749934232088E-08  -6.967785152974366E-08
  -7.144175463506137E-08  -7.325031115474931E-08  -7.510465149510055E-08
  -7.700593467876574E-08  -7.895534906917897E-08  -8.095411311332225E-08
  -8.300347610329355E-08  -8.510471895715376E-08  -8.725915501954059E-08
  -8.946813088255126E-08  -9.173302722740377E-08  -9.405525968740677E-08
  -9.643627973277480E-08  -9.887757557784253E-08  -1.013806731112460E-07
  -1.039471368496500E-07  -1.065785709156207E-07  -1.092766200402517E-07
  -1.120429705911731E-07  -1.148793516265838E-07  -1.177875359759661E-07
  -1.207693413481602E-07  -1.238266314674882E-07  -1.269613172386398E-07
  -1.301753579410478E-07  -1.334707624534972E-07  -1.368495905097374E-07
  -1.403139539858796E-07  -1.438660182203838E-07  -1.475080033674637E-07
  -1.512421857847493E-07  -1.550708994560821E-07  -1.589965374503256E-07
  -1.630215534171076E-07  -1.671484631204261E-07  -1.713798460110778E-07
  -1.757183468388947E-07  -1.801666773057924E-07  -1.847276177606667E-07
  -1.894040189371966E-07  -1.941988037356378E-07  -1.991149690497249E-07
  -2.041555876398197E-07  -2.093238100534793E-07  -2.146228665946440E-07
  -2.200560693426718E-07  -2.256268142224892E-07  -2.313385831271447E-07
  -2.371949460940958E-07  -2.431995635365894E-07  -2.493561885315271E-07
  -2.556686691652505E-07  -2.621409509387076E-07  -2.687770792335078E-07
  -2.755812018404051E-07  -2.825575715517860E-07  -2.897105488197911E-07
  -2.970446044817235E-07  -3.045643225544517E-07  -3.122744030995552E-07
  -3.201796651609940E-07  -3.282850497771531E-07  -3.365956230691317E-07
  -3.451165794072125E-07  -3.538532446574943E-07  -3.628110795107048E-07
  -3.719956828952887E-07  -3.814127954768955E-07  -3.910683032464551E-07
  -4.009682411990886E-07  -4.111187971061452E-07  -4.215263153827309E-07
  -4.321973010531438E-07  -4.431384238166913E-07  -4.543565222164356E-07
  -4.658586079134662E-07  -4.776518700693796E-07  -4.897436798396962E-07
  -5.021415949810314E-07  -5.148533645748940E-07  -5.278869338710654E-07
  -5.412504492535899E-07  -5.549522633324776E-07  -5.690009401643016E-07
  -5.834052606049569E-07  -5.981742277979149E-07  -6.133170728014211E-07
  -6.288432603581366E-07  -6.447624948108403E-07  -6.610847261678887E-07
  -6.778201563222088E-07  -6.949792454277350E-07  -7.125727184372595E-07
  -7.306115718057827E-07  -7.491070803635662E-07  -7.680708043631591E-07
  -7.875145967048320E-07  -8.074506103449132E-07  -8.278913058916629E-07
  -8.488494593934407E-07  -8.703381703240159E-07  -8.923708697700325E-07
  -9.149613288257324E-07  -9.381236672001857E-07  -9.618723620424160E-07
  -9.862222569899141E-07  -1.011188571446227E-06  -1.036786910093396E-06
  -1.063033272645192E-06  -1.089944063847269E-06  -1.117536103730431E-06
  -1.145826638123489E-06  -1.174833349432225E-06  -1.204574367691221E-06
  -1.235068281895468E-06  -1.266334151618807E-06  -1.298391518926505E-06
  -1.331260420589376E-06  -1.364961400607092E-06  -1.399515523048532E-06
  -1.434944385217132E-06  -1.471270131149563E-06  -1.508515465456066E-06
  -1.546703667511166E-06  -1.585858606003628E-06  -1.626004753854674E-06
  -1.667167203513925E-06  -1.709371682642467E-06  -1.752644570192966E-06
  -1.797012912896829E-06  -1.842504442168673E-06  -1.889147591438811E-06
  -1.936971513924379E-06  -1.986006100850394E-06  -2.036282000132045E-06
  -2.087830635529856E-06  -2.140684226289827E-06  -2.194875807280641E-06
  -2.250439249640693E-06  -2.307409281947753E-06  -2.365821511924457E-06
  -2.425712448693347E-06  -2.487119525595160E-06  -2.550081123584785E-06
  -2.614636595219463E-06  -2.680826289254138E-06  -2.748691575859517E-06
  -2.818274872478358E-06  -2.889619670336352E-06  -2.962770561624076E-06
  -3.037773267366926E-06  -3.114674666000660E-06  -3.193522822670156E-06
  -3.274367019269862E-06  -3.357257785244707E-06  -3.442246929170540E-06
  -3.529387571134141E-06  -3.618734175932693E-06  -3.710342587113735E-06
  -3.804270061876742E-06  -3.900575306858074E-06  -3.999318514821885E-06
  -4.100561402279625E-06  -4.204367248061864E-06  -4.310800932866483E-06
  -4.419928979807799E-06  -4.531819595992276E-06  -4.646542715146409E-06
  -4.764170041323741E-06  -4.884775093718173E-06  -5.008433252611488E-06
  -5.135221806484087E-06  -5.265220000317979E-06  -5.398509085122523E-06
  -5.535172368713763E-06  -5.675295267778906E-06  -5.818965361258900E-06
  -5.966272445081910E-06  -6.117308588282360E-06  -6.272168190540393E-06
  -6.430948041177553E-06  -6.593747379645988E-06  -6.760667957548416E-06
  -6.931814102228003E-06  -7.107292781967791E-06  -7.287213672840127E-06
  -7.471689227248425E-06  -7.660834744203414E-06  -7.854768441378271E-06
  -8.053611528987495E-06  -8.257488285535436E-06  -8.466526135482344E-06
  -8.680855728875783E-06  -8.900611022997677E-06  -9.125929366077812E-06
  -9.356951583125799E-06  -9.593822063935812E-06  -9.836688853318180E-06
  -1.008570374361491E-05  -1.034102236955657E-05  -1.060280430551985E-05
  -1.087121316524654E-05  -1.114641670408622E-05  -1.142858692382645E-05
  -1.171790018017614E-05  -1.201453729296880E-05  -1.231868365915505E-05
  -1.263052936865431E-05  -1.295026932313869E-05  -1.327810335782266E-05
  -1.361423636633492E-05  -1.395887842875031E-05  -1.431224494286168E-05
  -1.467455675877369E-05  -1.504604031690272E-05  -1.542692778946872E-05
  -1.581745722556779E-05  -1.621787269991553E-05  -1.662842446535451E-05
  -1.704936910922081E-05  -1.748096971366714E-05  -1.792349602004298E-05
  -1.837722459743384E-05  -1.884243901546540E-05  -1.931943002147997E-05
  -1.980849572219592E-05  -2.030994176996368E-05  -2.082408155373424E-05
  -2.135123639485960E-05  -2.189173574784714E-05  -2.244591740619335E-05
  -2.301412771342529E-05  -2.359672177948133E-05  -2.419406370256642E-05
  -2.480652679662029E-05  -2.543449382454006E-05  -2.607835723730351E-05
  -2.673851941914139E-05  -2.741539293891229E-05  -2.810940080783663E-05
  -2.882097674375034E-05  -2.955056544204368E-05  -3.029862285345317E-05
  -3.106561646888088E-05  -3.185202561141814E-05  -3.265834173575562E-05
  -3.348506873516720E-05  -3.433272325625791E-05  -3.520183502167334E-05
  -3.609294716097090E-05  -3.700661654985934E-05  -3.794341415801833E-05
  -3.890392540571426E-05  -3.988875052943517E-05  -4.089850495677236E-05
  -4.193381969078187E-05  -4.299534170406638E-05  -4.408373434282170E-05
  -4.519967774110083E-05  -4.634386924555284E-05  -4.751702385090116E-05
  -4.871987464643323E-05  -4.995317327377844E-05  -5.121769039626049E-05
  -5.251421618011574E-05  -5.384356078787726E-05  -5.520655488423215E-05
  -5.660405015466622E-05  -5.803691983721952E-05  -5.950605926768369E-05
  -6.101238643857929E-05  -6.255684257226272E-05  -6.414039270851734E-05
  -6.576402630699562E-05  -6.742875786488705E-05  -6.913562755019439E-05
  -7.088570185101417E-05  -7.268007424122354E-05  -7.451986586298784E-05
  -7.640622622651318E-05  -7.834033392747924E-05  -8.032339738259658E-05
  -8.235665558374755E-05  -8.444137887117773E-05  -8.657886972621865E-05
  -8.877046358403485E-05  -9.101752966689721E-05  -9.332147183850370E-05
  -9.568372947987493E-05  -9.810577838736861E-05  -1.005891316933718E-04
  -1.031353408102385E-04  -1.057459963980624E-04  -1.084227293568814E-04
  -1.111672118439309E-04  -1.139811583165765E-04  -1.168663266015696E-04
  -1.198245189912930E-04  -1.228575833676719E-04  -1.259674143544477E-04
  -1.291559544985288E-04  -1.324251954811461E-04  -1.357771793595685E-04
  -1.392139998401417E-04  -1.427378035834393E-04  -1.463507915423353E-04
  -1.500552203338200E-04  -1.538534036454139E-04  -1.577477136770425E-04
  -1.617405826192660E-04  -1.658345041687773E-04  -1.700320350820984E-04
  -1.743357967684416E-04  -1.787484769227123E-04  -1.832728311996628E-04
  -1.879116849302296E-04  -1.926679348811083E-04  -1.975445510586563E-04
  -2.025445785582274E-04  -2.076711394600817E-04  -2.129274347730354E-04
  -2.183167464270434E-04  -2.238424393159460E-04  -2.295079633916279E-04
  -2.353168558108822E-04  -2.412727431362934E-04  -2.473793435924900E-04
  -2.536404693791543E-04  -2.600600290422048E-04  -2.666420299046040E-04
  -2.733905805582841E-04  -2.803098934187086E-04  -2.874042873436430E-04
  -2.946781903177277E-04  -3.021361422044973E-04  -3.097827975675296E-04
  -3.176229285624395E-04  -3.256614279014899E-04  -3.339033118926235E-04
  -3.423537235547669E-04  -3.510179358113042E-04  -3.599013547636686E-04
  -3.690095230470289E-04  -3.783481232701279E-04  -3.879229815413485E-04
  -3.977400710831512E-04  -4.078055159370765E-04  -4.181255947615495E-04
  -4.287067447247971E-04  -4.395555654952194E-04  -4.506788233316381E-04
  -4.620834552758840E-04  -4.737765734502535E-04  -4.857654694624269E-04
  -4.980576189205002E-04  -5.106606860608421E-04  -5.235825284915640E-04
  -5.368312020544405E-04  -5.504149658082072E-04  -5.643422871362102E-04
  -5.786218469814708E-04  -5.932625452122937E-04  -6.082735061216081E-04
  -6.236640840633440E-04  -6.394438692291799E-04  -6.556226935691022E-04
  -6.722106368593037E-04  -6.892180329209962E-04  -7.066554759938496E-04
  -7.245338272678000E-04  -7.428642215771048E-04  -7.616580742605810E-04
  -7.809270881920622E-04  -8.006832609852193E-04  -8.209388923769642E-04
  -8.417065917937618E-04  -8.629992861052828E-04  -8.848302275699083E-04
  -9.072130019767356E-04  -9.301615369888059E-04  -9.536901106924031E-04
  -9.778133603573810E-04  -1.002546291413565E-03  -1.027904286648429E-03
  -1.053903115631338E-03  -1.080558944369747E-03  -1.107888345202928E-03
  -1.135908306938840E-03  -1.164636245239952E-03  -1.194090013263922E-03
  -1.224287912565152E-03  -1.255248704263417E-03  -1.286991620485832E-03
  -1.319536376088637E-03  -1.352903180665344E-03  -1.387112750847987E-03
  -1.422186322908316E-03  -1.458145665665942E-03  -1.495013093710604E-03
  -1.532811480945832E-03  -1.571564274461478E-03  -1.611295508742718E-03
  -1.652029820223262E-03  -1.693792462190730E-03  -1.736609320052247E-03
  -1.780506926968494E-03  -1.825512479864642E-03  -1.871653855826699E-03
  -1.918959628892040E-03  -1.967459087243015E-03  -2.017182250812681E-03
  -2.068159889311964E-03  -2.120423540687573E-03  -2.174005530020368E-03
  -2.228938988873858E-03  -2.285257875102829E-03  -2.342996993132199E-03
  -2.402192014716368E-03  -2.462879500189614E-03  -2.525096920218110E-03
  -2.588882678064430E-03  -2.654276132375565E-03  -2.721317620505582E-03
  -2.790048482384347E-03  -2.860511084943833E-03  -2.932748847113690E-03
  -3.006806265398035E-03  -3.082728940045405E-03  -3.160563601824232E-03
  -3.240358139416120E-03  -3.322161627439518E-03  -3.406024355116527E-03
  -3.491997855595603E-03  -3.580134935943296E-03  -3.670489707818097E-03
  -3.763117618839690E-03  -3.858075484667090E-03  -3.955421521799115E-03
  -4.055215381110976E-03  -4.157518182140649E-03  -4.262392548138949E-03
  -4.369902641897309E-03  -4.480114202367112E-03  -4.593094582084917E-03
  -4.708912785417516E-03  -4.827639507641093E-03  -4.949347174868693E-03
  -5.074109984840079E-03  -5.202003948588297E-03  -5.333106932997014E-03
  -5.467498704262675E-03  -5.605260972275595E-03  -5.746477435933690E-03
  -5.891233829402790E-03  -6.039617969337025E-03  -6.191719803072674E-03
  -6.347631457808737E-03  -6.507447290786995E-03  -6.671263940484339E-03
  -6.839180378829517E-03  -7.011297964456246E-03  -7.187720497004177E-03
  -7.368554272478556E-03  -7.553908139679276E-03  -7.743893557709004E-03
  -7.938624654569664E-03  -8.138218286855936E-03  -8.342794100553193E-03
  -8.552474592947265E-03  -8.767385175651576E-03  -8.987654238756894E-03
  -9.213413216107681E-03  -9.444796651707409E-03  -9.681942267254750E-03
  -9.924991030810468E-03  -1.017408722659370E-02  -1.042937852590469E-02
  -1.069101605916912E-02  -1.095915448909771E-02  -1.123395208495246E-02
  -1.151557079790881E-02  -1.180417633750103E-02  -1.209993824913500E-02
  -1.240302999265104E-02  -1.271362902191543E-02  -1.303191686541722E-02
  -1.335807920784316E-02  -1.369230597260051E-02  -1.403479140525366E-02
  -1.438573415783677E-02  -1.474533737400031E-02  -1.511380877494536E-02
  -1.549136074609406E-02  -1.587821042444095E-02  -1.627457978652307E-02
  -1.668069573694246E-02  -1.709679019736775E-02  -1.752310019593551E-02
  -1.795986795696566E-02  -1.840734099089739E-02  -1.886577218434486E-02
  -1.933541989016418E-02  -1.981654801741349E-02  -2.030942612108061E-02
  -2.081432949144170E-02  -2.133153924290481E-02  -2.186134240218168E-02
  -2.240403199561896E-02  -2.295990713550917E-02  -2.352927310518781E-02
  -2.411244144271041E-02  -2.470973002288870E-02  -2.532146313744979E-02
  -2.594797157306728E-02  -2.658959268699543E-02  -2.724667048002009E-02
  -2.791955566642228E-02  -2.860860574062857E-02  -2.931418504020421E-02
  -3.003666480482082E-02  -3.077642323080824E-02  -3.153384552087638E-02
  -3.230932392856520E-02  -3.310325779695705E-02  -3.391605359115357E-02
  -3.474812492399267E-02  -3.559989257444712E-02  -3.647178449811438E-02
  -3.736423582917257E-02  -3.827768887314018E-02  -3.921259308973898E-02
  -4.016940506511998E-02  -4.114858847266791E-02  -4.215061402155817E-02
  -4.317595939219102E-02  -4.422510915758039E-02  -4.529855468972362E-02
  -4.639679404992334E-02  -4.752033186197953E-02  -4.866967916710860E-02
  -4.984535325938669E-02  -5.104787750045042E-02  -5.227778111212015E-02
  -5.353559894554472E-02  -5.482187122539046E-02  -5.613714326752416E-02
  -5.748196516856164E-02  -5.885689146556942E-02  -6.026248076412673E-02
  -6.169929533286349E-02  -6.316790066250101E-02  -6.466886498732911E-02
  -6.620275876695295E-02  -6.777015412604737E-02  -6.937162424974971E-02
  -7.100774273221748E-02  -7.267908287576857E-02  -7.438621693790898E-02
  -7.612971532344050E-02  -7.791014571872321E-02  -7.972807216504926E-02
  -8.158405406796501E-02  -8.347864513925525E-02  -8.541239226818367E-02
  -8.738583431845739E-02  -8.939950084726213E-02  -9.145391074259294E-02
  -9.354957077498111E-02  -9.568697405960473E-02  -9.786659842464884E-02
  -1.000889046816737E-01  -1.023543347936426E-01  -1.046633099361577E-01
  -1.070162284473689E-01  -1.094134636619278E-01  -1.118553616242978E-01
  -1.143422386766689E-01  -1.168743789166831E-01  -1.194520315201570E-01
  -1.220754079239789E-01  -1.247446788643798E-01  -1.274599712658245E-01
  -1.302213649758390E-01  -1.330288893412067E-01  -1.358825196211061E-01
  -1.387821732329504E-01  -1.417277058269276E-01  -1.447189071855201E-01
  -1.477554969446262E-01  -1.508371201333143E-01  -1.539633425297060E-01
  -1.571336458310428E-01  -1.603474226366129E-01  -1.636039712429463E-01
  -1.669024902514986E-01  -1.702420729899726E-01  -1.736217017494758E-01
  -1.770402418408628E-01  -1.804964354749387E-01  -1.839888954726197E-01
  -1.875160988127653E-01  -1.910763800271706E-01  -1.946679244541282E-01
  -1.982887613641375E-01  -2.019367569736417E-01  -2.056096073652416E-01
  -2.093048313355961E-01  -2.130197631952116E-01  -2.167515455475881E-01
  -2.204971220786672E-01  -2.242532303913009E-01  -2.280163949234951E-01
  -2.317829199934658E-01  -2.355488830191663E-01  -2.393101279647787E-01
  -2.430622590718343E-01  -2.468006349380533E-01  -2.505203630126695E-01
  -2.542162945829909E-01  -2.578830203331101E-01  -2.615148665621018E-01
  -2.651058921556484E-01  -2.686498864117526E-01  -2.721403678280826E-01
  -2.755705839653582E-01  -2.789335125080883E-01  -2.822218636507529E-01
  -2.854280839441082E-01  -2.885443617426284E-01  -2.915626343999718E-01
  -2.944745973647290E-01  -2.972717153333604E-01  -2.999452356209886E-01
  -3.024862039134413E-01  -3.048854825653240E-01  -3.071337716088094E-01
  -3.092216326359195E-01  -3.111395157130762E-01  -3.128777894803397E-01
  -3.144267745786232E-01  -3.157767805359822E-01  -3.169181462283928E-01
  -3.178412840108605E-01  -3.185367275908353E-01  -3.189951836872537E-01
  -3.192075874847001E-01  -3.191651618526458E-01  -3.188594802540740E-01
  -3.182825332155523E-01  -3.174267981715472E-01  -3.162853124290770E-01
  -3.148517489243134E-01  -3.131204943601685E-01  -3.110867292230112E-01
  -3.087465090773434E-01  -3.060968464294996E-01  -3.031357923354048E-01
  -2.998625168034302E-01  -2.962773869119742E-01  -2.923820414233764E-01
  -2.881794605321661E-01  -2.836740292378843E-01  -2.788715926825540E-01
  -2.737795016424043E-01  -2.684066462153875E-01  -2.627634756033497E-01
  -2.568620017541046E-01  -2.507157845083255E-01  -2.443398957937797E-01
  -2.377508603305261E-01  -2.309665702611672E-01  -2.240061711068059E-01
  -2.168899164792976E-01  -2.096389890614088E-01  -2.022752855071254E-01
  -1.948211631231794E-01  -1.872991464790475E-01  -1.797315924654381E-01
  -1.721403127896260E-01  -1.645461534689225E-01  -1.569685315691318E-01
  -1.494249302403486E-01  -1.419303540337903E-01  -1.344967475443935E-01
  -1.271323816164404E-01  -1.198412126719865E-01  -1.126222221694702E-01
  -1.054741362305083E-01  -9.841317473024599E-02  -9.146037865826534E-02
  -8.463660614854628E-02  -7.796237740549772E-02  -7.145771395445114E-02
  -6.514197365116087E-02  -5.903368307392243E-02  -5.315036910500727E-02
  -4.750839168124305E-02  -4.212277985220783E-02  -3.700707342377837E-02
  -3.217317257979547E-02  -2.763119796005504E-02  -2.338936372360231E-02
  -1.945386613730745E-02  -1.582879019599536E-02  -1.251603669774532E-02
  -9.515272062403555E-03  -6.823902989980099E-03  -4.437077806407397E-03
  -2.347716036269836E-03  -5.465673762363998E-04   9.776991789373769E-04
   2.238375779997624E-03   3.250565979233792E-03   4.031005601968977E-03
   4.597855627078046E-03   4.970469080668049E-03   5.169134565748089E-03
   5.214799664788113E-03   5.128778048177862E-03   4.932444686767162E-03
   4.646924013545809E-03   4.292776245400420E-03   3.889688024959499E-03
   3.456173887488267E-03   3.009294006261692E-03   2.564395285227644E-03
   2.134882432428410E-03   1.732025754479144E-03   1.364812480112998E-03
   1.039848408131483E-03   7.613166759697296E-04   5.310004525797829E-04
   3.483763880756663E-04   2.107857049079703E-04   1.136898800434410E-04
   5.101791428242797E-05   1.561215844665675E-05  -2.205191029780451E-07
  -4.045904365146402E-06  -2.522535211157972E-06  -5.008574491122131E-07
   0.000000000000000E+00   0.000000000000000E+00   0.000000000000000E+00
   0.000000000000000E+00   0.000000000000000E+00   0.000000000000000E+00
   0.000000000000000E+00   0.000000000000000E+00   0.000000000000000E+00
   0.000000000000000E+00   0.000000000000000E+00   0.000000000000000E+00
   0.000000000000000E+00   0.000000000000000E+00   0.000000000000000E+00
   0.000000000000000E+00   0.000000000000000E+00   0.000000000000000E+00
   0.000000000000000E+00   0.000000000000000E+00   0.000000000000000E+00
   0.000000000000000E+00   0.000000000000000E+00   0.000000000000000E+00
   0.000000000000000E+00   0.000000000000000E+00   0.000000000000000E+00
   0.000000000000000E+00   0.000000000000000E+00   0.000000000000000E+00
   0.000000000000000E+00   0.000000000000000E+00   0.000000000000000E+00
   0.000000000000000E+00   0.000000000000000E+00   0.000000000000000E+00
   0.000000000000000E+00   0.000000000000000E+00   0.000000000000000E+00
   0.000000000000000E+00   0.000000000000000E+00   0.000000000000000E+00
   0.000000000000000E+00   0.000000000000000E+00   0.000000000000000E+00
   0.000000000000000E+00   0.000000000000000E+00   0.000000000000000E+00
   0.000000000000000E+00   0.000000000000000E+00   0.000000000000000E+00
   0.000000000000000E+00   0.000000000000000E+00   0.000000000000000E+00
   0.000000000000000E+00   0.000000000000000E+00   0.000000000000000E+00
   0.000000000000000E+00   0.000000000000000E+00   0.000000000000000E+00
   0.000000000000000E+00   0.000000000000000E+00   0.000000000000000E+00
   0.000000000000000E+00   0.000000000000000E+00   0.000000000000000E+00
   0.000000000000000E+00   0.000000000000000E+00   0.000000000000000E+00
   0.000000000000000E+00   0.000000000000000E+00   0.000000000000000E+00
   0.000000000000000E+00   0.000000000000000E+00   0.000000000000000E+00
   0.000000000000000E+00   0.000000000000000E+00   0.000000000000000E+00
   0.000000000000000E+00   0.000000000000000E+00   0.000000000000000E+00
   0.000000000000000E+00   0.000000000000000E+00   0.000000000000000E+00
   0.000000000000000E+00   0.000000000000000E+00   0.000000000000000E+00
   0.000000000000000E+00   0.000000000000000E+00   0.000000000000000E+00
   0.000000000000000E+00   0.000000000000000E+00   0.000000000000000E+00
   0.000000000000000E+00   0.000000000000000E+00   0.000000000000000E+00
   0.000000000000000E+00   0.000000000000000E+00   0.000000000000000E+00
   0.000000000000000E+00   0.000000000000000E+00   0.000000000000000E+00
   0.000000000000000E+00   0.000000000000000E+00   0.000000000000000E+00
   0.000000000000000E+00   0.000000000000000E+00   0.000000000000000E+00
   0.000000000000000E+00   0.000000000000000E+00   0.000000000000000E+00
   0.000000000000000E+00   0.000000000000000E+00   0.000000000000000E+00
   0.000000000000000E+00   0.000000000000000E+00   0.000000000000000E+00
   0.000000000000000E+00   0.000000000000000E+00   0.000000000000000E+00
   0.000000000000000E+00   0.000000000000000E+00   0.000000000000000E+00
   0.000000000000000E+00   0.000000000000000E+00   0.000000000000000E+00
   0.000000000000000E+00   0.000000000000000E+00   0.000000000000000E+00
   0.000000000000000E+00   0.000000000000000E+00   0.000000000000000E+00
   0.000000000000000E+00   0.000000000000000E+00   0.000000000000000E+00
   0.000000000000000E+00   0.000000000000000E+00   0.000000000000000E+00
   0.000000000000000E+00   0.000000000000000E+00   0.000000000000000E+00
   0.000000000000000E+00   0.000000000000000E+00   0.000000000000000E+00
   0.000000000000000E+00   0.000000000000000E+00   0.000000000000000E+00
   0.000000000000000E+00   0.000000000000000E+00   0.000000000000000E+00
   0.000000000000000E+00   0.000000000000000E+00   0.000000000000000E+00
   0.000000000000000E+00   0.000000000000000E+00   0.000000000000000E+00
   0.000000000000000E+00   0.000000000000000E+00   0.000000000000000E+00
   0.000000000000000E+00   0.000000000000000E+00   0.000000000000000E+00
   0.000000000000000E+00   0.000000000000000E+00   0.000000000000000E+00
   0.000000000000000E+00   0.000000000000000E+00   0.000000000000000E+00
   0.000000000000000E+00   0.000000000000000E+00   0.000000000000000E+00
   0.000000000000000E+00   0.000000000000000E+00   0.000000000000000E+00
   0.000000000000000E+00   0.000000000000000E+00   0.000000000000000E+00
   0.000000000000000E+00   0.000000000000000E+00   0.000000000000000E+00
   0.000000000000000E+00   0.000000000000000E+00   0.000000000000000E+00
   0.000000000000000E+00   0.000000000000000E+00   0.000000000000000E+00
   0.000000000000000E+00   0.000000000000000E+00   0.000000000000000E+00
   0.000000000000000E+00   0.000000000000000E+00   0.000000000000000E+00
   0.000000000000000E+00   0.000000000000000E+00   0.000000000000000E+00
   0.000000000000000E+00   0.000000000000000E+00   0.000000000000000E+00
   0.000000000000000E+00   0.000000000000000E+00   0.000000000000000E+00
   0.000000000000000E+00   0.000000000000000E+00   0.000000000000000E+00
   0.000000000000000E+00   0.000000000000000E+00   0.000000000000000E+00
   0.000000000000000E+00   0.000000000000000E+00   0.000000000000000E+00
   0.000000000000000E+00   0.000000000000000E+00   0.000000000000000E+00
   0.000000000000000E+00   0.000000000000000E+00   0.000000000000000E+00
   0.000000000000000E+00   0.000000000000000E+00   0.000000000000000E+00
   0.000000000000000E+00   0.000000000000000E+00   0.000000000000000E+00
   0.000000000000000E+00   0.000000000000000E+00   0.000000000000000E+00
   0.000000000000000E+00   0.000000000000000E+00   0.000000000000000E+00
   0.000000000000000E+00   0.000000000000000E+00   0.000000000000000E+00
   0.000000000000000E+00   0.000000000000000E+00   0.000000000000000E+00
   0.000000000000000E+00   0.000000000000000E+00   0.000000000000000E+00
   0.000000000000000E+00   0.000000000000000E+00   0.000000000000000E+00
   0.000000000000000E+00   0.000000000000000E+00   0.000000000000000E+00
   0.000000000000000E+00   0.000000000000000E+00   0.000000000000000E+00
   0.000000000000000E+00   0.000000000000000E+00   0.000000000000000E+00
   0.000000000000000E+00   0.000000000000000E+00   0.000000000000000E+00
   0.000000000000000E+00   0.000000000000000E+00   0.000000000000000E+00
   0.000000000000000E+00   0.000000000000000E+00   0.000000000000000E+00
   0.000000000000000E+00   0.000000000000000E+00   0.000000000000000E+00
   0.000000000000000E+00   0.000000000000000E+00   0.000000000000000E+00
   0.000000000000000E+00   0.000000000000000E+00   0.000000000000000E+00
   0.000000000000000E+00   0.000000000000000E+00   0.000000000000000E+00
   0.000000000000000E+00   0.000000000000000E+00   0.000000000000000E+00
   0.000000000000000E+00   0.000000000000000E+00   0.000000000000000E+00
   0.000000000000000E+00   0.000000000000000E+00   0.000000000000000E+00
   0.000000000000000E+00   0.000000000000000E+00   0.000000000000000E+00
   0.000000000000000E+00   0.000000000000000E+00   0.000000000000000E+00
   0.000000000000000E+00   0.000000000000000E+00   0.000000000000000E+00
   0.000000000000000E+00   0.000000000000000E+00   0.000000000000000E+00
   0.000000000000000E+00   0.000000000000000E+00   0.000000000000000E+00
   0.000000000000000E+00   0.000000000000000E+00   0.000000000000000E+00
   0.000000000000000E+00   0.000000000000000E+00   0.000000000000000E+00
   0.000000000000000E+00   0.000000000000000E+00   0.000000000000000E+00
   0.000000000000000E+00   0.000000000000000E+00   0.000000000000000E+00
   0.000000000000000E+00   0.000000000000000E+00   0.000000000000000E+00
   0.000000000000000E+00   0.000000000000000E+00   0.000000000000000E+00
   0.000000000000000E+00   0.000000000000000E+00   0.000000000000000E+00
   0.000000000000000E+00   0.000000000000000E+00   0.000000000000000E+00
   0.000000000000000E+00   0.000000000000000E+00   0.000000000000000E+00
   0.000000000000000E+00   0.000000000000000E+00   0.000000000000000E+00
   0.000000000000000E+00   0.000000000000000E+00   0.000000000000000E+00
   0.000000000000000E+00   0.000000000000000E+00   0.000000000000000E+00
   0.000000000000000E+00   0.000000000000000E+00   0.000000000000000E+00
   0.000000000000000E+00   0.000000000000000E+00   0.000000000000000E+00
   0.000000000000000E+00   0.000000000000000E+00   0.000000000000000E+00
   0.000000000000000E+00   0.000000000000000E+00   0.000000000000000E+00
   0.000000000000000E+00
      </PP_QIJL.2.2.0>
      <PP_QIJL.2.3.1 first_index="2" second_index="3" composite_index="5" angular_momentum="1" size="1129">
  -2.108206767893107E-12  -2.188765554487022E-12  -2.272402652923872E-12
  -2.359235691629055E-12  -2.449386793843888E-12  -2.542982749381395E-12
  -2.640155192945266E-12  -2.741040789262737E-12  -2.845781425291709E-12
  -2.954524409772572E-12  -3.067422680405182E-12  -3.184635018942569E-12
  -3.306326274503759E-12  -3.432667595419810E-12  -3.563836669939207E-12
  -3.700017976130949E-12  -3.841403041337057E-12  -3.988190711539216E-12
  -4.140587431018411E-12  -4.298807532701008E-12  -4.463073539599382E-12
  -4.633616477771299E-12  -4.810676201238046E-12  -4.994501729318316E-12
  -5.185351596852304E-12  -5.383494217808474E-12  -5.589208262784569E-12
  -5.802783050933562E-12  -6.024518956865914E-12  -6.254727833100406E-12
  -6.493733448657491E-12  -6.741871944412324E-12  -6.999492305847601E-12
  -7.266956853871228E-12  -7.544641754389179E-12  -7.832937547349934E-12
  -8.132249696004884E-12  -8.442999157156999E-12  -8.765622973199774E-12
  -9.100574886779219E-12  -9.448325978943079E-12  -9.809365331675184E-12
  -1.018420071574638E-11  -1.057335930484958E-11  -1.097738841702351E-11
  -1.139685628440718E-11  -1.183235285240870E-11  -1.228449060941156E-11
  -1.275390544818562E-11  -1.324125756021445E-11  -1.374723236419624E-11
  -1.427254147002492E-11  -1.481792367960663E-11  -1.538414602591922E-11
  -1.597200485177653E-11  -1.658232692981384E-11  -1.721597062527042E-11
  -1.787382710320414E-11  -1.855682158183594E-11  -1.926591463378724E-11
  -2.000210353703962E-11  -2.076642367751764E-11  -2.155995000526681E-11
  -2.238379854627486E-11  -2.323912797206278E-11  -2.412714122925233E-11
  -2.504908723140295E-11  -2.600626261549666E-11  -2.700001356554141E-11
  -2.803173770585821E-11  -2.910288606671352E-11  -3.021496512506270E-11
  -3.136953892327393E-11  -3.256823126881216E-11  -3.381272801797782E-11
  -3.510477944691023E-11  -3.644620271319245E-11  -3.783888441151809E-11
  -3.928478322701474E-11  -4.078593268995640E-11  -4.234444403573717E-11
  -4.396250917413124E-11  -4.564240377201257E-11  -4.738649045387140E-11
  -4.919722212462840E-11  -5.107714541941869E-11  -5.302890428519928E-11
  -5.505524369921553E-11  -5.715901352955701E-11  -5.934317254323246E-11
  -6.161079256739924E-11  -6.396506280960196E-11  -6.640929434309450E-11
  -6.894692476355372E-11  -7.158152302373545E-11  -7.431679445286935E-11
  -7.715658596785514E-11  -8.010489148358685E-11  -8.316585753001493E-11
  -8.634378908384690E-11  -8.964315562308483E-11  -9.306859741291975E-11
  -9.662493203181918E-11  -1.003171611469872E-10  -1.041504775487285E-10
  -1.081302724536031E-10  -1.122621430866507E-10  -1.165519005533425E-10
  -1.210055780123326E-10  -1.256294391605066E-10  -1.304299870422529E-10
  -1.354139731953546E-10  -1.405884071463591E-10  -1.459605662687799E-10
  -1.515380060179991E-10  -1.573285705572572E-10  -1.633404037896816E-10
  -1.695819608118656E-10  -1.760620198051058E-10  -1.827896943810228E-10
  -1.897744463989244E-10  -1.970260992729429E-10  -2.045548517876547E-10
  -2.123712924416180E-10  -2.204864143389977E-10  -2.289116306502172E-10
  -2.376587906633898E-10  -2.467401964490934E-10  -2.561686201619322E-10
  -2.659573220032168E-10  -2.761200688700169E-10  -2.866711537168270E-10
  -2.976254156570629E-10  -3.089982608326647E-10  -3.208056840811576E-10
  -3.330642914306318E-10  -3.457913234542914E-10  -3.590046795174083E-10
  -3.727229429507797E-10  -3.869654071861009E-10  -4.017521028899919E-10
  -4.171038261348564E-10  -4.330421676461797E-10  -4.495895431673958E-10
  -4.667692249850377E-10  -4.846053746584884E-10  -5.031230770003783E-10
  -5.223483753554097E-10  -5.423083082272144E-10  -5.630309473047734E-10
  -5.845454369418462E-10  -6.068820351449619E-10  -6.300721561275913E-10
  -6.541484144903541E-10  -6.791446710893984E-10  -7.050960806574312E-10
  -7.320391412444045E-10  -7.600117455473659E-10  -7.890532342016525E-10
  -8.192044511083966E-10  -8.505078008761099E-10  -8.830073084571748E-10
  -9.167486810630641E-10  -9.517793724453844E-10  -9.881486496331472E-10
  -1.025907662220064E-09  -1.065109514299411E-09  -1.105809339147483E-09
  -1.148064376760780E-09  -1.191934054355919E-09  -1.237480069945422E-09
  -1.284766479107042E-09  -1.333859785068481E-09  -1.384829032234318E-09
  -1.437745903286608E-09  -1.492684819995652E-09  -1.549723047882857E-09
  -1.608940804882643E-09  -1.670421374156403E-09  -1.734251221217057E-09
  -1.800520115528854E-09  -1.869321256753602E-09  -1.940751405820591E-09
  -2.014911021004768E-09  -2.091904399204362E-09  -2.171839822616623E-09
  -2.254829711018082E-09  -2.340990779863232E-09  -2.430444204424128E-09
  -2.523315790201656E-09  -2.619736149847997E-09  -2.719840886849309E-09
  -2.823770786226589E-09  -2.931672012523133E-09  -3.043696315356896E-09
  -3.160001242826656E-09  -3.280750363072358E-09  -3.406113494300810E-09
  -3.536266943600442E-09  -3.671393754880873E-09  -3.811683966285676E-09
  -3.957334877440739E-09  -4.108551326913466E-09  -4.265545980273335E-09
  -4.428539629158715E-09  -4.597761501770239E-09  -4.773449585227752E-09
  -4.955850960243548E-09  -5.145222148582813E-09  -5.341829473799733E-09
  -5.545949435756186E-09  -5.757869099450144E-09  -5.977886498699771E-09
  -6.206311055251333E-09  -6.443464013899957E-09  -6.689678894234724E-09
  -6.945301959643911E-09  -7.210692704238841E-09  -7.486224358381659E-09
  -7.772284413527430E-09  -8.069275167118175E-09  -8.377614288295614E-09
  -8.697735405226922E-09  -9.030088714870026E-09  -9.375141616035295E-09
  -9.733379366633248E-09  -1.010530576603315E-08  -1.049144386349051E-08
  -1.089233669364038E-08  -1.130854804008989E-08  -1.174066322818305E-08
  -1.218928994805333E-08  -1.265505910911947E-08  -1.313862572722680E-08
  -1.364066984568070E-08  -1.416189749146625E-08  -1.470304166799939E-08
  -1.526486338580350E-08  -1.584815273256110E-08  -1.645372998404445E-08
  -1.708244675748561E-08  -1.773518720900892E-08  -1.841286927680627E-08
  -1.911644597180466E-08  -1.984690671763862E-08  -2.060527874181096E-08
  -2.139262851999728E-08  -2.221006327552328E-08  -2.305873253612269E-08
  -2.393982975016342E-08  -2.485459396461237E-08  -2.580431156709813E-08
  -2.679031809451791E-08  -2.781400011073149E-08  -2.887679715597963E-08
  -2.998020377076628E-08  -3.112577159704857E-08  -3.231511155968609E-08
  -3.354989613121512E-08  -3.483186168312928E-08  -3.616281092696947E-08
  -3.754461544865391E-08  -3.897921833960662E-08  -4.046863692838230E-08
  -4.201496561662387E-08  -4.362037882333634E-08  -4.528713404161338E-08
  -4.701757501210908E-08  -4.881413501771339E-08  -5.067934030405799E-08
  -5.261581363065644E-08  -5.462627795766674E-08  -5.671356027345282E-08
  -5.888059556832115E-08  -6.113043096001199E-08  -6.346622997673822E-08
  -6.589127700378702E-08  -6.840898189992588E-08  -7.102288479009615E-08
  -7.373666104112344E-08  -7.655412642742769E-08  -7.947924249398851E-08
  -8.251612212409084E-08  -8.566903531966909E-08  -8.894241520236240E-08
  -9.234086424370300E-08  -9.586916073318499E-08  -9.953226549328625E-08
  -1.033353288508722E-07  -1.072836978747619E-07  -1.113829238896103E-07
  -1.156387702766553E-07  -1.200572205722673E-07  -1.246444868756699E-07
  -1.294070185776224E-07  -1.343515114223092E-07  -1.394849169151501E-07
  -1.448144520897217E-07  -1.503476096474938E-07  -1.560921684845972E-07
  -1.620562046203837E-07  -1.682481025431077E-07  -1.746765669886293E-07
  -1.813506351686601E-07  -1.882796894656899E-07  -1.954734706123877E-07
  -2.029420913739568E-07  -2.106960507526108E-07  -2.187462487340850E-07
  -2.271040015968422E-07  -2.357810578054217E-07  -2.447896145102059E-07
  -2.541423346767108E-07  -2.638523648683828E-07  -2.739333537078421E-07
  -2.843994710424401E-07  -2.952654278407863E-07  -3.065464968484655E-07
  -3.182585340314750E-07  -3.304180008376125E-07  -3.430419873070200E-07
  -3.561482360639896E-07  -3.697551672238595E-07  -3.838819042497305E-07
  -3.985483007950137E-07  -4.137749685698131E-07  -4.295833062696167E-07
  -4.459955296069953E-07  -4.630347024882423E-07  -4.807247693785946E-07
  -4.990905889012670E-07  -5.181579687171313E-07  -5.379537017337599E-07
  -5.585056036948456E-07  -5.798425522019233E-07  -6.019945272230501E-07
  -6.249926531454651E-07  -6.488692424301340E-07  -6.736578409299227E-07
  -6.993932749340274E-07  -7.261117000045227E-07  -7.538506516733598E-07
  -7.826490980700826E-07  -8.125474945541410E-07  -8.435878404273840E-07
  -8.758137378062880E-07  -9.092704527361657E-07  -9.440049786307709E-07
  -9.800661021286802E-07  -1.017504471455082E-06  -1.056372667386682E-06
  -1.096725276915407E-06  -1.138618969717511E-06  -1.182112577531258E-06
  -1.227267176553485E-06  -1.274146172972530E-06  -1.322815391753065E-06
  -1.373343168798037E-06  -1.425800446614840E-06  -1.480260873620804E-06
  -1.536800907220777E-06  -1.595499920805818E-06  -1.656440314817407E-06
  -1.719707632032348E-06  -1.785390677228861E-06  -1.853581641398250E-06
  -1.924376230674520E-06  -1.997873800162063E-06  -2.074177492845010E-06
  -2.153394383768930E-06  -2.235635629698838E-06  -2.321016624455228E-06
  -2.409657160146820E-06  -2.501681594518325E-06  -2.597219024649972E-06
  -2.696403467242585E-06  -2.799374045740034E-06  -2.906275184546887E-06
  -3.017256810607119E-06  -3.132474562623238E-06  -3.252090008202058E-06
  -3.376270869227306E-06  -3.505191255766409E-06  -3.639031908836206E-06
  -3.777980452358067E-06  -3.922231654647282E-06  -4.071987699799473E-06
  -4.227458469340487E-06  -4.388861834530222E-06  -4.556423959715315E-06
  -4.730379617151421E-06  -4.910972513717920E-06  -5.098455629978103E-06
  -5.293091572043030E-06  -5.495152936718147E-06  -5.704922690434047E-06
  -5.922694562472951E-06  -6.148773453026845E-06  -6.383475856641685E-06
  -6.627130301622117E-06  -6.880077805993665E-06  -7.142672350637059E-06
  -7.415281370237796E-06  -7.698286262713125E-06  -7.992082917804290E-06
  -8.297082265548418E-06  -8.613710845368174E-06  -8.942411396544405E-06
  -9.283643470865220E-06  -9.637884068278171E-06  -1.000562829639376E-05
  -1.038739005472338E-05  -1.078370274457140E-05  -1.119512000552511E-05
  -1.162221647952844E-05  -1.206558860355422E-05  -1.252585543193513E-05
  -1.300365948943566E-05  -1.349966765621103E-05  -1.401457208580939E-05
  -1.454909115744502E-05  -1.510397046378837E-05  -1.567998383558139E-05
  -1.627793440442791E-05  -1.689865570514460E-05  -1.754301281912659E-05
  -1.821190356022467E-05  -1.890625970467406E-05  -1.962704826667966E-05
  -2.037527282132983E-05  -2.115197487653400E-05  -2.195823529577481E-05
  -2.279517577351102E-05  -2.366396036513125E-05  -2.456579707342193E-05
  -2.550193949359375E-05  -2.647368851896328E-05  -2.748239410947170E-05
  -2.852945712528583E-05  -2.961633122781790E-05  -3.074452485056035E-05
  -3.191560324223041E-05  -3.313119058479154E-05  -3.439297218900863E-05
  -3.570269677028434E-05  -3.706217880760952E-05  -3.847330098856375E-05
  -3.993801674338117E-05  -4.145835287122091E-05  -4.303641226185541E-05
  -4.467437671611667E-05  -4.637450986854085E-05  -4.813916021574468E-05
  -4.997076425421396E-05  -5.187184973127417E-05  -5.384503901312916E-05
  -5.589305257400639E-05  -5.801871261052862E-05  -6.022494678560009E-05
  -6.251479210619301E-05  -6.489139893958137E-05  -6.735803517267459E-05
  -6.991809051928261E-05  -7.257508098023641E-05  -7.533265346148515E-05
  -7.819459055539199E-05  -8.116481549063872E-05  -8.424739725626702E-05
  -8.744655590558372E-05  -9.076666804575126E-05  -9.421227251912571E-05
  -9.778807628248634E-05  -1.014989604905194E-04  -1.053499867900700E-04
  -1.093464038318233E-04  -1.134936540062782E-04  -1.177973804110193E-04
  -1.222634340564780E-04  -1.268978813175373E-04  -1.317070116385063E-04
  -1.366973454991739E-04  -1.418756426497929E-04  -1.472489106230503E-04
  -1.528244135312119E-04  -1.586096811568143E-04  -1.646125183454515E-04
  -1.708410147093167E-04  -1.773035546503629E-04  -1.840088277120673E-04
  -1.909658392689388E-04  -1.981839215630291E-04  -2.056727450968608E-04
  -2.134423303922828E-04  -2.215030601248884E-04  -2.298656916437150E-04
  -2.385413698860387E-04  -2.475416406971710E-04  -2.568784645651493E-04
  -2.665642307803563E-04  -2.766117720300235E-04  -2.870343794376343E-04
  -2.978458180571987E-04  -3.090603428323115E-04  -3.206927150298496E-04
  -3.327582191580273E-04  -3.452726803784307E-04  -3.582524824214175E-04
  -3.717145860140989E-04  -3.856765478298556E-04  -4.001565399680051E-04
  -4.151733699719136E-04  -4.307465013934504E-04  -4.468960749111428E-04
  -4.636429300089735E-04  -4.810086272220681E-04  -4.990154709549021E-04
  -5.176865328769081E-04  -5.370456758994991E-04  -5.571175787376621E-04
  -5.779277610581883E-04  -5.995026092155621E-04  -6.218694025752166E-04
  -6.450563404225807E-04  -6.690925694548266E-04  -6.940082118506294E-04
  -7.198343939114756E-04  -7.466032752661464E-04  -7.743480786279436E-04
  -8.031031200919100E-04  -8.329038399569493E-04  -8.637868340549751E-04
  -8.957898855664881E-04  -9.289519972988001E-04  -9.633134243998521E-04
  -9.989157074769578E-04  -1.035801706085984E-03  -1.074015632552310E-03
  -1.113603086080448E-03  -1.154611087104501E-03  -1.197088111826449E-03
  -1.241084126883814E-03  -1.286650624082397E-03  -1.333840655123508E-03
  -1.382708866248410E-03  -1.433311532715618E-03  -1.485706593018958E-03
  -1.539953682746321E-03  -1.596114167970258E-03  -1.654251178052492E-03
  -1.714429637734537E-03  -1.776716298376307E-03  -1.841179768193464E-03
  -1.907890541332646E-03  -1.976921025611208E-03  -2.048345568735041E-03
  -2.122240482794004E-03  -2.198684066819880E-03  -2.277756627176076E-03
  -2.359540495531941E-03  -2.444120044157140E-03  -2.531581698253215E-03
  -2.622013945020201E-03  -2.715507339135764E-03  -2.812154504303052E-03
  -2.912050130500880E-03  -3.015290966546298E-03  -3.121975807554895E-03
  -3.232205476858045E-03  -3.346082801909356E-03  -3.463712583683971E-03
  -3.585201559044666E-03  -3.710658355517785E-03  -3.840193437889447E-03
  -3.973919045999134E-03  -4.111949123072342E-03  -4.254399233897841E-03
  -4.401386472117278E-03  -4.553029355855558E-03  -4.709447710880388E-03
  -4.870762540437211E-03  -5.037095880862996E-03  -5.208570642038102E-03
  -5.385310431689730E-03  -5.567439362514505E-03  -5.755081841039659E-03
  -5.948362337094267E-03  -6.147405132712693E-03  -6.352334049242364E-03
  -6.563272151378315E-03  -6.780341426795731E-03  -7.003662440001624E-03
  -7.233353958976348E-03  -7.469532553125439E-03  -7.712312161013984E-03
  -7.961803626307041E-03  -8.218114200293862E-03  -8.481347009329367E-03
  -8.751600485484247E-03  -9.028967758656867E-03  -9.313536008364768E-03
  -9.605385773402982E-03  -9.904590217530812E-03  -1.021121434932859E-02
  -1.052531419435338E-02  -1.084693591771648E-02  -1.117611489520931E-02
  -1.151287473111671E-02  -1.185722622088102E-02  -1.220916625681614E-02
  -1.256867667512074E-02  -1.293572304250441E-02  -1.331025338082257E-02
  -1.369219682821499E-02  -1.408146223536429E-02  -1.447793669563172E-02
  -1.488148400799474E-02  -1.529194307190353E-02  -1.570912621339419E-02
  -1.613281744204990E-02  -1.656277063868533E-02  -1.699870767395252E-02
  -1.744031645842607E-02  -1.788724892512716E-02  -1.833911894589269E-02
  -1.879550018348836E-02  -1.925592388190849E-02  -1.971987659790239E-02
  -2.018679787741912E-02  -2.065607788137616E-02  -2.112705496593068E-02
  -2.159901322327205E-02  -2.207117998986162E-02  -2.254272333002240E-02
  -2.301274950383248E-02  -2.348030042939970E-02  -2.394435115079638E-02
  -2.440380732421138E-02  -2.485750273623274E-02  -2.530419686960990E-02
  -2.574257253335562E-02  -2.617123357563680E-02  -2.658870269956561E-02
  -2.699341940373319E-02  -2.738373807112776E-02  -2.775792623193292E-02
  -2.811416302761180E-02  -2.845053790563253E-02  -2.876504957616943E-02
  -2.905560526411486E-02  -2.932002029173298E-02  -2.955601802927148E-02
  -2.976123025279091E-02  -2.993319795035402E-02  -3.006937261951332E-02
  -3.016711810070937E-02  -3.022371299271616E-02  -3.023635369760323E-02
  -3.020215814378485E-02  -3.011817023655351E-02  -2.998136508599348E-02
  -2.978865506229244E-02  -2.953689672815398E-02  -2.922289869720306E-02
  -2.884343046590292E-02  -2.839523226450067E-02  -2.787502596981513E-02
  -2.727952711920292E-02  -2.660545806071401E-02  -2.584956226919268E-02
  -2.500861985182815E-02  -2.407946425932725E-02  -2.305900021039957E-02
  -2.194422282755503E-02  -2.073223797123511E-02  -1.942028374700417E-02
  -1.800575314685595E-02  -1.648621777062241E-02  -1.485945255701758E-02
  -1.312346143597906E-02  -1.127650379478122E-02  -9.317121629897861E-03
  -7.244167234929078E-03  -5.056831252215892E-03  -2.754670892199614E-03
  -3.376381004337736E-04   2.193892572343441E-03   4.839096666132496E-03
   7.596673366658060E-03   1.046482023559792E-02   1.344120945382851E-02
   1.652296593496251E-02   1.970664768311275E-02   2.298822878182944E-02
   2.636308540971030E-02   2.982598528124186E-02   3.337108090806847E-02
   3.699190706497260E-02   4.068138282527005E-02   4.443181850098706E-02
   4.823492778284816E-02   5.208184532273337E-02   5.596314993573803E-02
   5.986889351930865E-02   6.378863569239945E-02   6.771148404746205E-02
   7.162613978212908E-02   7.552094833561158E-02   7.938395449753090E-02
   8.320296128516955E-02   8.696559170039075E-02   9.065935228212087E-02
   9.427169716732182E-02   9.779009116679566E-02   1.012020701570399E-01
   1.044952968917273E-01   1.076576101536387E-01   1.106770650085322E-01
   1.135419617963574E-01   1.162408614136110E-01   1.187625844157941E-01
   1.210961915144897E-01   1.232309431739798E-01   1.251562362427999E-01
   1.268615159018300E-01   1.283361616878959E-01   1.295693469753335E-01
   1.305498720810182E-01   1.312659721122685E-01   1.317051018098960E-01
   1.318537009541689E-01   1.316969453976522E-01   1.312184904567518E-01
   1.304036690101724E-01   1.292509989556089E-01   1.277641512042627E-01
   1.259488719061774E-01   1.238130087966891E-01   1.213665198263801E-01
   1.186214627375904E-01   1.155919643757985E-01   1.122941686813422E-01
   1.087461624974955E-01   1.049678785555844E-01   1.009809752566504E-01
   9.680869316183696E-02   9.247568842856009E-02   8.800784378448284E-02
   8.343205801309238E-02   7.877601532875902E-02   7.406793643956811E-02
   6.933631352913183E-02   6.460963181959800E-02   5.991608080747914E-02
   5.528325867384475E-02   5.073787375466725E-02   4.630544730281681E-02
   4.201002206912721E-02   3.787388146449091E-02   3.391728422673133E-02
   3.015821959508251E-02   2.661218798224801E-02   2.329201202107139E-02
   2.020768267088666E-02   1.736624456624523E-02   1.477172519691979E-02
   1.242510951017609E-02   1.032436368361164E-02   8.464512048084460E-03
   6.837768066341857E-03   5.433717703350688E-03   4.239556571468850E-03
   3.240379884434055E-03   2.419523660631140E-03   1.758955078458788E-03
   1.239709337235176E-03   8.423699707607313E-04   5.475892511347669E-04
   3.366450974565949E-04   1.920307318430958E-04   9.807314620943752E-05
   4.157617538458336E-05   1.199345679533947E-05  -1.598436394356639E-07
  -2.769464027108093E-06  -1.631823675352084E-06  -3.064070335789815E-07
   0.000000000000000E+00   0.000000000000000E+00   0.000000000000000E+00
   0.000000000000000E+00   0.000000000000000E+00   0.000000000000000E+00
   0.000000000000000E+00   0.000000000000000E+00   0.000000000000000E+00
   0.000000000000000E+00   0.000000000000000E+00   0.000000000000000E+00
   0.000000000000000E+00   0.000000000000000E+00   0.000000000000000E+00
   0.000000000000000E+00   0.000000000000000E+00   0.000000000000000E+00
   0.000000000000000E+00   0.000000000000000E+00   0.000000000000000E+00
   0.000000000000000E+00   0.000000000000000E+00   0.000000000000000E+00
   0.000000000000000E+00   0.000000000000000E+00   0.000000000000000E+00
   0.000000000000000E+00   0.000000000000000E+00   0.000000000000000E+00
   0.000000000000000E+00   0.000000000000000E+00   0.000000000000000E+00
   0.000000000000000E+00   0.000000000000000E+00   0.000000000000000E+00
   0.000000000000000E+00   0.000000000000000E+00   0.000000000000000E+00
   0.000000000000000E+00   0.000000000000000E+00   0.000000000000000E+00
   0.000000000000000E+00   0.000000000000000E+00   0.000000000000000E+00
   0.000000000000000E+00   0.000000000000000E+00   0.000000000000000E+00
   0.000000000000000E+00   0.000000000000000E+00   0.000000000000000E+00
   0.000000000000000E+00   0.000000000000000E+00   0.000000000000000E+00
   0.000000000000000E+00   0.000000000000000E+00   0.000000000000000E+00
   0.000000000000000E+00   0.000000000000000E+00   0.000000000000000E+00
   0.000000000000000E+00   0.000000000000000E+00   0.000000000000000E+00
   0.000000000000000E+00   0.000000000000000E+00   0.000000000000000E+00
   0.000000000000000E+00   0.000000000000000E+00   0.000000000000000E+00
   0.000000000000000E+00   0.000000000000000E+00   0.000000000000000E+00
   0.000000000000000E+00   0.000000000000000E+00   0.000000000000000E+00
   0.000000000000000E+00   0.000000000000000E+00   0.000000000000000E+00
   0.000000000000000E+00   0.000000000000000E+00   0.000000000000000E+00
   0.000000000000000E+00   0.000000000000000E+00   0.000000000000000E+00
   0.000000000000000E+00   0.000000000000000E+00   0.000000000000000E+00
   0.000000000000000E+00   0.000000000000000E+00   0.000000000000000E+00
   0.000000000000000E+00   0.000000000000000E+00   0.000000000000000E+00
   0.000000000000000E+00   0.000000000000000E+00   0.000000000000000E+00
   0.000000000000000E+00   0.000000000000000E+00   0.000000000000000E+00
   0.000000000000000E+00   0.000000000000000E+00   0.000000000000000E+00
   0.000000000000000E+00   0.000000000000000E+00   0.000000000000000E+00
   0.000000000000000E+00   0.000000000000000E+00   0.000000000000000E+00
   0.000000000000000E+00   0.000000000000000E+00   0.000000000000000E+00
   0.000000000000000E+00   0.000000000000000E+00   0.000000000000000E+00
   0.000000000000000E+00   0.000000000000000E+00   0.000000000000000E+00
   0.000000000000000E+00   0.000000000000000E+00   0.000000000000000E+00
   0.000000000000000E+00   0.000000000000000E+00   0.000000000000000E+00
   0.000000000000000E+00   0.000000000000000E+00   0.000000000000000E+00
   0.000000000000000E+00   0.000000000000000E+00   0.000000000000000E+00
   0.000000000000000E+00   0.000000000000000E+00   0.000000000000000E+00
   0.000000000000000E+00   0.000000000000000E+00   0.000000000000000E+00
   0.000000000000000E+00   0.000000000000000E+00   0.000000000000000E+00
   0.000000000000000E+00   0.000000000000000E+00   0.000000000000000E+00
   0.000000000000000E+00   0.000000000000000E+00   0.000000000000000E+00
   0.000000000000000E+00   0.000000000000000E+00   0.000000000000000E+00
   0.000000000000000E+00   0.000000000000000E+00   0.000000000000000E+00
   0.000000000000000E+00   0.000000000000000E+00   0.000000000000000E+00
   0.000000000000000E+00   0.000000000000000E+00   0.000000000000000E+00
   0.000000000000000E+00   0.000000000000000E+00   0.000000000000000E+00
   0.000000000000000E+00   0.000000000000000E+00   0.000000000000000E+00
   0.000000000000000E+00   0.000000000000000E+00   0.000000000000000E+00
   0.000000000000000E+00   0.000000000000000E+00   0.000000000000000E+00
   0.000000000000000E+00   0.000000000000000E+00   0.000000000000000E+00
   0.000000000000000E+00   0.000000000000000E+00   0.000000000000000E+00
   0.000000000000000E+00   0.000000000000000E+00   0.000000000000000E+00
   0.000000000000000E+00   0.000000000000000E+00   0.000000000000000E+00
   0.000000000000000E+00   0.000000000000000E+00   0.000000000000000E+00
   0.000000000000000E+00   0.000000000000000E+00   0.000000000000000E+00
   0.000000000000000E+00   0.000000000000000E+00   0.000000000000000E+00
   0.000000000000000E+00   0.000000000000000E+00   0.000000000000000E+00
   0.000000000000000E+00   0.000000000000000E+00   0.000000000000000E+00
   0.000000000000000E+00   0.000000000000000E+00   0.000000000000000E+00
   0.000000000000000E+00   0.000000000000000E+00   0.000000000000000E+00
   0.000000000000000E+00   0.000000000000000E+00   0.000000000000000E+00
   0.000000000000000E+00   0.000000000000000E+00   0.000000000000000E+00
   0.000000000000000E+00   0.000000000000000E+00   0.000000000000000E+00
   0.000000000000000E+00   0.000000000000000E+00   0.000000000000000E+00
   0.000000000000000E+00   0.000000000000000E+00   0.000000000000000E+00
   0.000000000000000E+00   0.000000000000000E+00   0.000000000000000E+00
   0.000000000000000E+00   0.000000000000000E+00   0.000000000000000E+00
   0.000000000000000E+00   0.000000000000000E+00   0.000000000000000E+00
   0.000000000000000E+00   0.000000000000000E+00   0.000000000000000E+00
   0.000000000000000E+00   0.000000000000000E+00   0.000000000000000E+00
   0.000000000000000E+00   0.000000000000000E+00   0.000000000000000E+00
   0.000000000000000E+00   0.000000000000000E+00   0.000000000000000E+00
   0.000000000000000E+00   0.000000000000000E+00   0.000000000000000E+00
   0.000000000000000E+00   0.000000000000000E+00   0.000000000000000E+00
   0.000000000000000E+00   0.000000000000000E+00   0.000000000000000E+00
   0.000000000000000E+00   0.000000000000000E+00   0.000000000000000E+00
   0.000000000000000E+00   0.000000000000000E+00   0.000000000000000E+00
   0.000000000000000E+00   0.000000000000000E+00   0.000000000000000E+00
   0.000000000000000E+00   0.000000000000000E+00   0.000000000000000E+00
   0.000000000000000E+00   0.000000000000000E+00   0.000000000000000E+00
   0.000000000000000E+00   0.000000000000000E+00   0.000000000000000E+00
   0.000000000000000E+00   0.000000000000000E+00   0.000000000000000E+00
   0.000000000000000E+00   0.000000000000000E+00   0.000000000000000E+00
   0.000000000000000E+00   0.000000000000000E+00   0.000000000000000E+00
   0.000000000000000E+00   0.000000000000000E+00   0.000000000000000E+00
   0.000000000000000E+00   0.000000000000000E+00   0.000000000000000E+00
   0.000000000000000E+00   0.000000000000000E+00   0.000000000000000E+00
   0.000000000000000E+00   0.000000000000000E+00   0.000000000000000E+00
   0.000000000000000E+00   0.000000000000000E+00   0.000000000000000E+00
   0.000000000000000E+00   0.000000000000000E+00   0.000000000000000E+00
   0.000000000000000E+00   0.000000000000000E+00   0.000000000000000E+00
   0.000000000000000E+00   0.000000000000000E+00   0.000000000000000E+00
   0.000000000000000E+00   0.000000000000000E+00   0.000000000000000E+00
   0.000000000000000E+00   0.000000000000000E+00   0.000000000000000E+00
   0.000000000000000E+00   0.000000000000000E+00   0.000000000000000E+00
   0.000000000000000E+00   0.000000000000000E+00   0.000000000000000E+00
   0.000000000000000E+00   0.000000000000000E+00   0.000000000000000E+00
   0.000000000000000E+00   0.000000000000000E+00   0.000000000000000E+00
   0.000000000000000E+00   0.000000000000000E+00   0.000000000000000E+00
   0.000000000000000E+00   0.000000000000000E+00   0.000000000000000E+00
   0.000000000000000E+00   0.000000000000000E+00   0.000000000000000E+00
   0.000000000000000E+00   0.000000000000000E+00   0.000000000000000E+00
   0.000000000000000E+00   0.000000000000000E+00   0.000000000000000E+00
   0.000000000000000E+00   0.000000000000000E+00   0.000000000000000E+00
   0.000000000000000E+00   0.000000000000000E+00   0.000000000000000E+00
   0.000000000000000E+00   0.000000000000000E+00   0.000000000000000E+00
   0.000000000000000E+00   0.000000000000000E+00   0.000000000000000E+00
   0.000000000000000E+00
      </PP_QIJL.2.3.1>
      <PP_QIJL.2.4.1 first_index="2" second_index="4" composite_index="8" angular_momentum="1" size="1129">
  -1.120417128578574E-12  -1.163230502302663E-12  -1.207679860388702E-12
  -1.253827717056688E-12  -1.301738975319194E-12  -1.351481018261852E-12
  -1.403123803811855E-12  -1.456739963127762E-12  -1.512404902748940E-12
  -1.570196910648381E-12  -1.630197266337954E-12  -1.692490355181038E-12
  -1.757163787073238E-12  -1.824308519658141E-12  -1.894018986251395E-12
  -1.966393228652970E-12  -2.041533035034504E-12  -2.119544083095542E-12
  -2.200536088690076E-12  -2.284622960132415E-12  -2.371922958399334E-12
  -2.462558863453905E-12  -2.556658146924872E-12  -2.654353151384440E-12
  -2.755781276476628E-12  -2.861085172157930E-12  -2.970412939322092E-12
  -3.083918338091160E-12  -3.201761004065714E-12  -3.324106672838484E-12
  -3.451127413086997E-12  -3.583001868573227E-12  -3.719915509390464E-12
  -3.862060892810842E-12  -4.009637934100371E-12  -4.162854187682277E-12
  -4.321925139044196E-12  -4.487074507799686E-12  -4.658534562330300E-12
  -4.836546446450785E-12  -5.021360518556687E-12  -5.213236703731546E-12
  -5.412444859308729E-12  -5.619265154402097E-12  -5.833988463939326E-12
  -6.056916777751840E-12  -6.288363625297039E-12  -6.528654516609867E-12
  -6.778127400104019E-12  -7.037133137866643E-12  -7.306035999114842E-12
  -7.585214172508248E-12  -7.875060298037919E-12  -8.175982019239746E-12
  -8.488402556509134E-12  -8.812761302322803E-12  -9.149514439205469E-12
  -9.499135581310043E-12  -9.862116440513816E-12  -1.023896751796758E-11
  -1.063021882206991E-11  -1.103642061387680E-11  -1.145814418099471E-11
  -1.189598264104555E-11  -1.235055177583361E-11  -1.282249089738743E-11
  -1.331246374709488E-11  -1.382115942919586E-11  -1.434929337994540E-11
  -1.489760837381047E-11  -1.546687556811517E-11  -1.605789558760398E-11
  -1.667149965044811E-11  -1.730855073727848E-11  -1.796994480489004E-11
  -1.865661204632330E-11  -1.936951819909644E-11  -2.010966590342716E-11
  -2.087809611235459E-11  -2.167588955574484E-11  -2.250416826023825E-11
  -2.336409712727732E-11  -2.425688557143332E-11  -2.518378922133674E-11
  -2.614611168560321E-11  -2.714520638623831E-11  -2.818247846210068E-11
  -2.925938674509921E-11  -3.037744581190468E-11  -3.153822811406090E-11
  -3.274336618949069E-11  -3.399455495850797E-11  -3.529355410756427E-11
  -3.664219056408218E-11  -3.804236106585709E-11  -3.949603482863918E-11
  -4.100525631564951E-11  -4.257214811292313E-11  -4.419891391452453E-11
  -4.588784162183347E-11  -4.764130656125871E-11  -4.946177482490719E-11
  -5.135180673890541E-11  -5.331406046425071E-11  -5.535129573525842E-11
  -5.746637774085911E-11  -5.966228115420887E-11  -6.194209431627610E-11
  -6.430902357929053E-11  -6.676639781616316E-11  -6.931767310221659E-11
  -7.196643757581361E-11  -7.471641648471727E-11  -7.757147742528037E-11
  -8.053563578183367E-11  -8.361306037391952E-11  -8.680807931931687E-11
  -9.012518612110118E-11  -9.356904598729944E-11  -9.714450239203026E-11
  -1.008565838873526E-10  -1.047105111754084E-10  -1.087117044507992E-10
  -1.128657910235287E-10  -1.171786132332272E-10  -1.216562366657897E-10
  -1.263049586839847E-10  -1.311313172840293E-10  -1.361421002905851E-10
  -1.413443549031107E-10  -1.467453976069890E-10  -1.523528244633759E-10
  -1.581745217922354E-10  -1.642186772635889E-10  -1.704937914125764E-10
  -1.770086895945195E-10  -1.837725343968058E-10  -1.907948385250456E-10
  -1.980854781816244E-10  -2.056547069554678E-10  -2.135131702425466E-10
  -2.216719202174103E-10  -2.301424313767993E-10  -2.389366166771934E-10
  -2.480668442889990E-10  -2.575459549909249E-10  -2.673872802290210E-10
  -2.776046608657709E-10  -2.882124666456022E-10  -2.992256164042009E-10
  -3.106595990500328E-10  -3.225304953475969E-10  -3.348550005330328E-10
  -3.476504477938896E-10  -3.609348326460831E-10  -3.747268382423041E-10
  -3.890458616474928E-10  -4.039120411183144E-10  -4.193462844250007E-10
  -4.353702982553974E-10  -4.520066187425460E-10  -4.692786431587579E-10
  -4.872106628207280E-10  -5.058278972519752E-10  -5.251565296506526E-10
  -5.452237437125798E-10  -5.660577618613345E-10  -5.876878849390937E-10
  -6.101445334141001E-10  -6.334592901626819E-10  -6.576649448859554E-10
  -6.827955402237477E-10  -7.088864196304957E-10  -7.359742770805177E-10
  -7.640972086725290E-10  -7.932947662059364E-10  -8.236080128043431E-10
  -8.550795806643583E-10  -8.877537310110296E-10  -9.216764163441553E-10
  -9.568953450629837E-10  -9.934600485602657E-10  -1.031421950879885E-09
  -1.070834441036122E-09  -1.111752948096208E-09  -1.154235019131691E-09
  -1.198340400148373E-09  -1.244131120108434E-09  -1.291671578163049E-09
  -1.341028634218076E-09  -1.392271702960155E-09  -1.445472851475532E-09
  -1.500706900598716E-09  -1.558051530133622E-09  -1.617587388095094E-09
  -1.679398204124352E-09  -1.743570907237999E-09  -1.810195748075961E-09
  -1.879366425820391E-09  -1.951180219963971E-09  -2.025738127112770E-09
  -2.103145003016249E-09  -2.183509710023826E-09  -2.266945270175578E-09
  -2.353569024142203E-09  -2.443502796237681E-09  -2.536873065736824E-09
  -2.633811144738355E-09  -2.734453362823753E-09  -2.838941258771485E-09
  -2.947421779595987E-09  -3.060047487191581E-09  -3.176976772871450E-09
  -3.298374080103626E-09  -3.424410135757011E-09  -3.555262190182424E-09
  -3.691114266466551E-09  -3.832157419208763E-09  -3.978590003184993E-09
  -4.130617952276218E-09  -4.288455069053543E-09  -4.452323325427402E-09
  -4.622453174782969E-09  -4.799083876041088E-09  -4.982463830100049E-09
  -5.172850929131011E-09  -5.370512919218594E-09  -5.575727776855799E-09
  -5.788784099822951E-09  -6.009981513000041E-09  -6.239631089682594E-09
  -6.478055788993913E-09  -6.725590910007831E-09  -6.982584563220816E-09
  -7.249398160036059E-09  -7.526406920947095E-09  -7.814000403136143E-09
  -8.112583048227691E-09  -8.422574750967968E-09  -8.744411449629402E-09
  -9.078545738969356E-09  -9.425447506605724E-09  -9.785604593702395E-09
  -1.015952348089431E-08  -1.054773000041539E-08  -1.095077007543034E-08
  -1.136921048760943E-08  -1.180363967402466E-08  -1.225466855448739E-08
  -1.272293139049012E-08  -1.320908667695894E-08  -1.371381806807043E-08
  -1.423783533843315E-08  -1.478187538098495E-08  -1.534670324300792E-08
  -1.593311320171650E-08  -1.654192988093034E-08  -1.717400941040043E-08
  -1.783024062941755E-08  -1.851154633639401E-08  -1.921888458617372E-08
  -1.995325003689392E-08  -2.071567534828970E-08  -2.150723263340628E-08
  -2.232903496575797E-08  -2.318223794405077E-08  -2.406804131666682E-08
  -2.498769066819179E-08  -2.594247917035470E-08  -2.693374939983883E-08
  -2.796289522551670E-08  -2.903136376775993E-08  -3.014065743257489E-08
  -3.129233602342120E-08  -3.248801893367812E-08  -3.372938742283755E-08
  -3.501818697961981E-08  -3.635622977532978E-08  -3.774539721089796E-08
  -3.918764256118314E-08  -4.068499372024699E-08  -4.223955605145682E-08
  -4.385351534641509E-08  -4.552914089687045E-08  -4.726878868392168E-08
  -4.907490468898972E-08  -5.095002833120664E-08  -5.289679603604278E-08
  -5.491794494018221E-08  -5.701631673784467E-08  -5.919486167394916E-08
  -6.145664268972520E-08  -6.380483972658407E-08  -6.624275419429112E-08
  -6.877381360970525E-08  -7.140157641259221E-08  -7.412973696526806E-08
  -7.696213074308244E-08  -7.990273972302300E-08  -8.295569797799669E-08
  -8.612529748463096E-08  -8.941599415274094E-08  -9.283241408491197E-08
  -9.637936007497647E-08  -1.000618183544920E-07  -1.038849655966770E-07
  -1.078541761876212E-07  -1.119750297749601E-07  -1.162533191045911E-07
  -1.206950581564115E-07  -1.253064905904774E-07  -1.300940985154149E-07
  -1.350646115913539E-07  -1.402250164802106E-07  -1.455825666563362E-07
  -1.511447925916064E-07  -1.569195123289179E-07  -1.629148424590231E-07
  -1.691392095160411E-07  -1.756013618076424E-07  -1.823103816963741E-07
  -1.892756983494153E-07  -1.965071009744765E-07  -2.040147525604930E-07
  -2.118092041422417E-07  -2.199014096088234E-07  -2.283027410768448E-07
  -2.370250048495907E-07  -2.460804579846499E-07  -2.554818254931773E-07
  -2.652423181946296E-07  -2.753756512521525E-07  -2.858960634143114E-07
  -2.968183369903406E-07  -3.081578185863702E-07  -3.199304406319111E-07
  -3.321527437267258E-07  -3.448418998387782E-07  -3.580157363863612E-07
  -3.716927612372750E-07  -3.858921886604978E-07  -4.006339662661747E-07
  -4.159388029716911E-07  -4.318281980326793E-07  -4.483244711796292E-07
  -4.654507939018940E-07  -4.832312219225347E-07  -5.016907289097874E-07
  -5.208552414715880E-07  -5.407516754818360E-07  -5.614079737893228E-07
  -5.828531453618269E-07  -6.051173059191572E-07  -6.282317201121163E-07
  -6.522288453064423E-07  -6.771423770317442E-07  -7.030072961590206E-07
  -7.298599178721422E-07  -7.577379425016109E-07  -7.866805082906575E-07
  -8.167282461671285E-07  -8.479233365974262E-07  -8.803095686007740E-07
  -9.139324010056902E-07  -9.488390260344900E-07  -9.850784353016042E-07
  -1.022701488320784E-06  -1.061760983611653E-06  -1.102311732507011E-06
  -1.144410635762673E-06  -1.188116763073688E-06  -1.233491435609416E-06
  -1.280598311679043E-06  -1.329503475648508E-06  -1.380275530228103E-06
  -1.432985692261034E-06  -1.487707892143462E-06  -1.544518877012678E-06
  -1.603498317846377E-06  -1.664728920620722E-06  -1.728296541677687E-06
  -1.794290307463482E-06  -1.862802738800086E-06  -1.933929879861444E-06
  -2.007771432030703E-06  -2.084430892824008E-06  -2.164015700066942E-06
  -2.246637381525780E-06  -2.332411710195493E-06  -2.421458865456939E-06
  -2.513903600324361E-06  -2.609875415010809E-06  -2.709508737048866E-06
  -2.812943108210519E-06  -2.920323378483716E-06  -3.031799907366292E-06
  -3.147528772753329E-06  -3.267671987699968E-06  -3.392397725355659E-06
  -3.521880552372725E-06  -3.656301671107354E-06  -3.795849170939407E-06
  -3.940718289051213E-06  -4.091111681017995E-06  -4.247239701573584E-06
  -4.409320695932491E-06  -4.577581302056214E-06  -4.752256764274347E-06
  -4.933591258679561E-06  -5.121838230733272E-06  -5.317260745532728E-06
  -5.520131851212038E-06  -5.730734955957842E-06  -5.949364219146986E-06
  -6.176324957123757E-06  -6.411934064158041E-06  -6.656520449146086E-06
  -6.910425488627430E-06  -7.174003496724119E-06  -7.447622212619698E-06
  -7.731663306221819E-06  -8.026522902678040E-06  -8.332612126430608E-06
  -8.650357665527141E-06  -8.980202356926614E-06  -9.322605793567247E-06
  -9.678044953985910E-06  -1.004701485531406E-05  -1.043002923049568E-05
  -1.082762123060822E-05  -1.124034415319525E-05  -1.166877219755148E-05
  -1.211350124793558E-05  -1.257514968571528E-05  -1.305435923148897E-05
  -1.355179581826065E-05  -1.406815049678108E-05  -1.460414037421185E-05
  -1.516050958729925E-05  -1.573803031129073E-05  -1.633750380587104E-05
  -1.695976149943215E-05  -1.760566611303067E-05  -1.827611282545252E-05
  -1.897203048082282E-05  -1.969438284026913E-05  -2.044416987918542E-05
  -2.122242913169557E-05  -2.203023708397060E-05  -2.286871061810319E-05
  -2.373900850830262E-05  -2.464233297122368E-05  -2.557993127230533E-05
  -2.655309739005793E-05  -2.756317374028288E-05  -2.861155296229463E-05
  -2.969967976925704E-05  -3.082905286482111E-05  -3.200122692832290E-05
  -3.321781467085495E-05  -3.448048896460970E-05  -3.579098504794783E-05
  -3.715110280873967E-05  -3.856270914857299E-05  -4.002774043052644E-05
  -4.154820501325923E-05  -4.312618587426452E-05  -4.476384332519888E-05
  -4.646341782229422E-05  -4.822723287493059E-05  -5.005769805553358E-05
  -5.195731211405119E-05  -5.392866620033377E-05  -5.597444719784904E-05
  -5.809744117222612E-05  -6.030053693822755E-05  -6.258672974883222E-05
  -6.495912511018722E-05  -6.742094272628969E-05  -6.997552057734488E-05
  -7.262631913581919E-05  -7.537692572431547E-05  -7.823105901946122E-05
  -8.119257370610438E-05  -8.426546528618212E-05  -8.745387504670681E-05
  -9.076209519141146E-05  -9.419457414064108E-05  -9.775592200418558E-05
  -1.014509162317923E-04  -1.052845074461710E-04  -1.092618254633785E-04
  -1.133881855054954E-04  -1.176690946105959E-04  -1.221102582450167E-04
  -1.267175871230084E-04  -1.314972042388430E-04  -1.364554521164913E-04
  -1.415989002819975E-04  -1.469343529636652E-04  -1.524688570251614E-04
  -1.582097101366204E-04  -1.641644691887887E-04  -1.703409589551971E-04
  -1.767472810072722E-04  -1.833918228872107E-04  -1.902832675433271E-04
  -1.974306030324541E-04  -2.048431324938193E-04  -2.125304843986380E-04
  -2.205026230794570E-04  -2.287698595430403E-04  -2.373428625703205E-04
  -2.462326701066297E-04  -2.554507009450898E-04  -2.650087667056458E-04
  -2.749190841118131E-04  -2.851942875667284E-04  -2.958474420295720E-04
  -3.068920561928664E-04  -3.183420959604999E-04  -3.302119982256579E-04
  -3.425166849470676E-04  -3.552715775211286E-04  -3.684926114466338E-04
  -3.821962512777441E-04  -3.963995058598718E-04  -4.111199438419208E-04
  -4.263757094571160E-04  -4.421855385632597E-04  -4.585687749318145E-04
  -4.755453867736110E-04  -4.931359834872734E-04  -5.113618326146173E-04
  -5.302448769853072E-04  -5.498077520309042E-04  -5.700738032461794E-04
  -5.910671037731002E-04  -6.128124720802882E-04  -6.353354897078933E-04
  -6.586625190448856E-04  -6.828207211024756E-04  -7.078380732439711E-04
  -7.337433868277279E-04  -7.605663247158813E-04  -7.883374185974128E-04
  -8.170880860696743E-04  -8.468506474176764E-04  -8.776583420255345E-04
  -9.095453443490244E-04  -9.425467793725650E-04  -9.766987374679012E-04
  -1.012038288565369E-03  -1.048603495541864E-03  -1.086433426722451E-03
  -1.125568167384974E-03  -1.166048830148978E-03  -1.207917564121797E-03
  -1.251217562665727E-03  -1.295993069640722E-03  -1.342289383967128E-03
  -1.390152862342493E-03  -1.439630919935419E-03  -1.490772028867906E-03
  -1.543625714285369E-03  -1.598242547800773E-03  -1.654674138085943E-03
  -1.712973118368983E-03  -1.773193130582152E-03  -1.835388805889076E-03
  -1.899615741304229E-03  -1.965930472100786E-03  -2.034390439685587E-03
  -2.105053954601788E-03  -2.177980154300909E-03  -2.253228955306448E-03
  -2.330860999370959E-03  -2.410937593207420E-03  -2.493520641354276E-03
  -2.578672571710936E-03  -2.666456253257694E-03  -2.756934905450390E-03
  -2.850171998755827E-03  -2.946231145769390E-03  -3.045175982330952E-03
  -3.147070038029473E-03  -3.251976595460849E-03  -3.359958537576963E-03
  -3.471078182437863E-03  -3.585397104652061E-03  -3.702975942763712E-03
  -3.823874191819216E-03  -3.948149980319681E-03  -4.075859830740693E-03
  -4.207058402776017E-03  -4.341798218438364E-03  -4.480129368128113E-03
  -4.622099196759764E-03  -4.767751969017289E-03  -4.917128512792301E-03
  -5.070265839844885E-03  -5.227196742715384E-03  -5.387949366907420E-03
  -5.552546757358360E-03  -5.721006378213411E-03  -5.893339604924880E-03
  -6.069551187708684E-03  -6.249638685407007E-03  -6.433591868830182E-03
  -6.621392092681946E-03  -6.813011635212584E-03  -7.008413004793783E-03
  -7.207548212668674E-03  -7.410358011201907E-03  -7.616771097037693E-03
  -7.826703278670969E-03  -8.040056608048386E-03  -8.256718475943114E-03
  -8.476560670992764E-03  -8.699438402452247E-03  -8.925189286897414E-03
  -9.153632299319510E-03  -9.384566689278274E-03  -9.617770863033809E-03
  -9.853001232855334E-03  -1.008999103501093E-02  -1.032844911827757E-02
  -1.056805870517648E-02  -1.080847612853806E-02  -1.104932954643236E-02
  -1.129021763896983E-02  -1.153070829098181E-02  -1.177033726513353E-02
  -1.200860687060537E-02  -1.224498463310090E-02  -1.247890197260500E-02
  -1.270975289602094E-02  -1.293689271256364E-02  -1.315963678057609E-02
  -1.337725929526679E-02  -1.358899212773728E-02  -1.379402372657904E-02
  -1.399149809426466E-02  -1.418051385153892E-02  -1.436012340402387E-02
  -1.452933222628783E-02  -1.468709827968253E-02  -1.483233158131966E-02
  -1.496389394263203E-02  -1.508059889703267E-02  -1.518121183724053E-02
  -1.526445038386990E-02  -1.532898500786851E-02  -1.537343993032343E-02
  -1.539639432401347E-02  -1.539638384185652E-02  -1.537190249805574E-02
  -1.532140492826892E-02  -1.524330905548320E-02  -1.513599918844703E-02
  -1.499782957946096E-02  -1.482712846802833E-02  -1.462220263628092E-02
  -1.438134250118750E-02  -1.410282776728742E-02  -1.378493366202678E-02
  -1.342593777367053E-02  -1.302412750918106E-02  -1.257780818634440E-02
  -1.208531177075681E-02  -1.154500626400652E-02  -1.095530574446489E-02
  -1.031468105650413E-02  -9.621671137642916E-03  -8.874894966073701E-03
  -8.073064103214731E-03  -7.214995797347201E-03  -6.299626605051538E-03
  -5.326026477036238E-03  -4.293413244111923E-03  -3.201167427517703E-03
  -2.048847285634850E-03  -8.362039964113638E-04   4.368031383428584E-04
   1.769991594074727E-03   3.162940770894008E-03   4.614977541654087E-03
   6.125162368288846E-03   7.692276166611180E-03   9.314808111473300E-03
   1.099094458463083E-02   1.271855947641294E-02   1.449520605892552E-02
   1.631811065254038E-02   1.818416830827011E-02   2.008994072577023E-02
   2.203165661951483E-02   2.400521473353246E-02   2.600618968735600E-02
   2.802984081184113E-02   3.007112410267198E-02   3.212470738107711E-02
   3.418498870499316E-02   3.624611801923387E-02   3.830202196976724E-02
   4.034643173486747E-02   4.237291364468540E-02   4.437490227094650E-02
   4.634573557064554E-02   4.827869156261325E-02   5.016702590505879E-02
   5.200400962738067E-02   5.378296615297636E-02   5.549730663436783E-02
   5.714056251112352E-02   5.870641409900820E-02   6.018871393034114E-02
   6.158150349626604E-02   6.287902199783638E-02   6.407570570141881E-02
   6.516617652254580E-02   6.614521853908815E-02   6.700774126795790E-02
   6.774872873818065E-02   6.836317366564078E-02   6.884599638931263E-02
   6.919194867268580E-02   6.939550301345099E-02   6.945072874356009E-02
   6.935115694220804E-02   6.908963702461822E-02   6.865818880420035E-02
   6.804976374724329E-02   6.726459695493810E-02   6.630575694187919E-02
   6.517743417134732E-02   6.388494492638669E-02   6.243472488050769E-02
   6.083431172556836E-02   5.909231630140786E-02   5.721838177681054E-02
   5.522313055486092E-02   5.311809871775788E-02   5.091565798629727E-02
   4.862892534686969E-02   4.627166069255595E-02   4.385815303301947E-02
   4.140309604802054E-02   3.892145398839492E-02   3.642831916281542E-02
   3.393876248414938E-02   3.146767878101478E-02   2.902962880280999E-02
   2.663868005405295E-02   2.430824878022173E-02   2.205094558575632E-02
   1.987842728897551E-02   1.780125770189168E-02   1.582878005903976E-02
   1.396900380306743E-02   1.222850836109254E-02   1.061236641124568E-02
   9.124088941140810E-03   7.765594138601450E-03   6.537201831292465E-03
   5.437654653848913E-03   4.464166570054960E-03   3.612500060350771E-03
   2.877072362122202E-03   2.251088109704404E-03   1.726698385385979E-03
   1.295184187826669E-03   9.471619294010164E-04   6.728080840827169E-04
   4.620995503542488E-04   3.050657990504232E-04   1.920483980361945E-04
   1.139630421641488E-04   6.255875210469525E-05   3.066841668303288E-05
   1.244431077120078E-05   3.419639327081891E-06  -4.315465047810552E-08
  -7.028980614776081E-07  -3.859435979206016E-07  -6.680089712635118E-08
   0.000000000000000E+00   0.000000000000000E+00   0.000000000000000E+00
   0.000000000000000E+00   0.000000000000000E+00   0.000000000000000E+00
   0.000000000000000E+00   0.000000000000000E+00   0.000000000000000E+00
   0.000000000000000E+00   0.000000000000000E+00   0.000000000000000E+00
   0.000000000000000E+00   0.000000000000000E+00   0.000000000000000E+00
   0.000000000000000E+00   0.000000000000000E+00   0.000000000000000E+00
   0.000000000000000E+00   0.000000000000000E+00   0.000000000000000E+00
   0.000000000000000E+00   0.000000000000000E+00   0.000000000000000E+00
   0.000000000000000E+00   0.000000000000000E+00   0.000000000000000E+00
   0.000000000000000E+00   0.000000000000000E+00   0.000000000000000E+00
   0.000000000000000E+00   0.000000000000000E+00   0.000000000000000E+00
   0.000000000000000E+00   0.000000000000000E+00   0.000000000000000E+00
   0.000000000000000E+00   0.000000000000000E+00   0.000000000000000E+00
   0.000000000000000E+00   0.000000000000000E+00   0.000000000000000E+00
   0.000000000000000E+00   0.000000000000000E+00   0.000000000000000E+00
   0.000000000000000E+00   0.000000000000000E+00   0.000000000000000E+00
   0.000000000000000E+00   0.000000000000000E+00   0.000000000000000E+00
   0.000000000000000E+00   0.000000000000000E+00   0.000000000000000E+00
   0.000000000000000E+00   0.000000000000000E+00   0.000000000000000E+00
   0.000000000000000E+00   0.000000000000000E+00   0.000000000000000E+00
   0.000000000000000E+00   0.000000000000000E+00   0.000000000000000E+00
   0.000000000000000E+00   0.000000000000000E+00   0.000000000000000E+00
   0.000000000000000E+00   0.000000000000000E+00   0.000000000000000E+00
   0.000000000000000E+00   0.000000000000000E+00   0.000000000000000E+00
   0.000000000000000E+00   0.000000000000000E+00   0.000000000000000E+00
   0.000000000000000E+00   0.000000000000000E+00   0.000000000000000E+00
   0.000000000000000E+00   0.000000000000000E+00   0.000000000000000E+00
   0.000000000000000E+00   0.000000000000000E+00   0.000000000000000E+00
   0.000000000000000E+00   0.000000000000000E+00   0.000000000000000E+00
   0.000000000000000E+00   0.000000000000000E+00   0.000000000000000E+00
   0.000000000000000E+00   0.000000000000000E+00   0.000000000000000E+00
   0.000000000000000E+00   0.000000000000000E+00   0.000000000000000E+00
   0.000000000000000E+00   0.000000000000000E+00   0.000000000000000E+00
   0.000000000000000E+00   0.000000000000000E+00   0.000000000000000E+00
   0.000000000000000E+00   0.000000000000000E+00   0.000000000000000E+00
   0.000000000000000E+00   0.000000000000000E+00   0.000000000000000E+00
   0.000000000000000E+00   0.000000000000000E+00   0.000000000000000E+00
   0.000000000000000E+00   0.000000000000000E+00   0.000000000000000E+00
   0.000000000000000E+00   0.000000000000000E+00   0.000000000000000E+00
   0.000000000000000E+00   0.000000000000000E+00   0.000000000000000E+00
   0.000000000000000E+00   0.000000000000000E+00   0.000000000000000E+00
   0.000000000000000E+00   0.000000000000000E+00   0.000000000000000E+00
   0.000000000000000E+00   0.000000000000000E+00   0.000000000000000E+00
   0.000000000000000E+00   0.000000000000000E+00   0.000000000000000E+00
   0.000000000000000E+00   0.000000000000000E+00   0.000000000000000E+00
   0.000000000000000E+00   0.000000000000000E+00   0.000000000000000E+00
   0.000000000000000E+00   0.000000000000000E+00   0.000000000000000E+00
   0.000000000000000E+00   0.000000000000000E+00   0.000000000000000E+00
   0.000000000000000E+00   0.000000000000000E+00   0.000000000000000E+00
   0.000000000000000E+00   0.000000000000000E+00   0.000000000000000E+00
   0.000000000000000E+00   0.000000000000000E+00   0.000000000000000E+00
   0.000000000000000E+00   0.000000000000000E+00   0.000000000000000E+00
   0.000000000000000E+00   0.000000000000000E+00   0.000000000000000E+00
   0.000000000000000E+00   0.000000000000000E+00   0.000000000000000E+00
   0.000000000000000E+00   0.000000000000000E+00   0.000000000000000E+00
   0.000000000000000E+00   0.000000000000000E+00   0.000000000000000E+00
   0.000000000000000E+00   0.000000000000000E+00   0.000000000000000E+00
   0.000000000000000E+00   0.000000000000000E+00   0.000000000000000E+00
   0.000000000000000E+00   0.000000000000000E+00   0.000000000000000E+00
   0.000000000000000E+00   0.000000000000000E+00   0.000000000000000E+00
   0.000000000000000E+00   0.000000000000000E+00   0.000000000000000E+00
   0.000000000000000E+00   0.000000000000000E+00   0.000000000000000E+00
   0.000000000000000E+00   0.000000000000000E+00   0.000000000000000E+00
   0.000000000000000E+00   0.000000000000000E+00   0.000000000000000E+00
   0.000000000000000E+00   0.000000000000000E+00   0.000000000000000E+00
   0.000000000000000E+00   0.000000000000000E+00   0.000000000000000E+00
   0.000000000000000E+00   0.000000000000000E+00   0.000000000000000E+00
   0.000000000000000E+00   0.000000000000000E+00   0.000000000000000E+00
   0.000000000000000E+00   0.000000000000000E+00   0.000000000000000E+00
   0.000000000000000E+00   0.000000000000000E+00   0.000000000000000E+00
   0.000000000000000E+00   0.000000000000000E+00   0.000000000000000E+00
   0.000000000000000E+00   0.000000000000000E+00   0.000000000000000E+00
   0.000000000000000E+00   0.000000000000000E+00   0.000000000000000E+00
   0.000000000000000E+00   0.000000000000000E+00   0.000000000000000E+00
   0.000000000000000E+00   0.000000000000000E+00   0.000000000000000E+00
   0.000000000000000E+00   0.000000000000000E+00   0.000000000000000E+00
   0.000000000000000E+00   0.000000000000000E+00   0.000000000000000E+00
   0.000000000000000E+00   0.000000000000000E+00   0.000000000000000E+00
   0.000000000000000E+00   0.000000000000000E+00   0.000000000000000E+00
   0.000000000000000E+00   0.000000000000000E+00   0.000000000000000E+00
   0.000000000000000E+00   0.000000000000000E+00   0.000000000000000E+00
   0.000000000000000E+00   0.000000000000000E+00   0.000000000000000E+00
   0.000000000000000E+00   0.000000000000000E+00   0.000000000000000E+00
   0.000000000000000E+00   0.000000000000000E+00   0.000000000000000E+00
   0.000000000000000E+00   0.000000000000000E+00   0.000000000000000E+00
   0.000000000000000E+00   0.000000000000000E+00   0.000000000000000E+00
   0.000000000000000E+00   0.000000000000000E+00   0.000000000000000E+00
   0.000000000000000E+00   0.000000000000000E+00   0.000000000000000E+00
   0.000000000000000E+00   0.000000000000000E+00   0.000000000000000E+00
   0.000000000000000E+00   0.000000000000000E+00   0.000000000000000E+00
   0.000000000000000E+00   0.000000000000000E+00   0.000000000000000E+00
   0.000000000000000E+00   0.000000000000000E+00   0.000000000000000E+00
   0.000000000000000E+00   0.000000000000000E+00   0.000000000000000E+00
   0.000000000000000E+00   0.000000000000000E+00   0.000000000000000E+00
   0.000000000000000E+00   0.000000000000000E+00   0.000000000000000E+00
   0.000000000000000E+00   0.000000000000000E+00   0.000000000000000E+00
   0.000000000000000E+00   0.000000000000000E+00   0.000000000000000E+00
   0.000000000000000E+00   0.000000000000000E+00   0.000000000000000E+00
   0.000000000000000E+00   0.000000000000000E+00   0.000000000000000E+00
   0.000000000000000E+00   0.000000000000000E+00   0.000000000000000E+00
   0.000000000000000E+00   0.000000000000000E+00   0.000000000000000E+00
   0.000000000000000E+00   0.000000000000000E+00   0.000000000000000E+00
   0.000000000000000E+00   0.000000000000000E+00   0.000000000000000E+00
   0.000000000000000E+00   0.000000000000000E+00   0.000000000000000E+00
   0.000000000000000E+00   0.000000000000000E+00   0.000000000000000E+00
   0.000000000000000E+00   0.000000000000000E+00   0.000000000000000E+00
   0.000000000000000E+00   0.000000000000000E+00   0.000000000000000E+00
   0.000000000000000E+00   0.000000000000000E+00   0.000000000000000E+00
   0.000000000000000E+00   0.000000000000000E+00   0.000000000000000E+00
   0.000000000000000E+00   0.000000000000000E+00   0.000000000000000E+00
   0.000000000000000E+00   0.000000000000000E+00   0.000000000000000E+00
   0.000000000000000E+00   0.000000000000000E+00   0.000000000000000E+00
   0.000000000000000E+00   0.000000000000000E+00   0.000000000000000E+00
   0.000000000000000E+00   0.000000000000000E+00   0.000000000000000E+00
   0.000000000000000E+00
      </PP_QIJL.2.4.1>
      <PP_QIJL.3.3.0 first_index="3" second_index="3" composite_index="6" angular_momentum="0" size="1129">
   8.235623813509678E-08   8.444109617041341E-08   8.657873263514480E-08
   8.877048362143743E-08   9.101771904476391E-08   9.332184350016345E-08
   9.568429714015917E-08   9.810655657489987E-08   1.005901357950881E-07
   1.031365871182740E-07   1.057475021591023E-07   1.084245128241231E-07
   1.111692923317857E-07   1.139835562582534E-07   1.168690636096944E-07
   1.198276179217156E-07   1.228610683866308E-07   1.259713110092651E-07
   1.291602897920177E-07   1.324299979499270E-07   1.357824791564916E-07
   1.392198288210329E-07   1.427441953983923E-07   1.463577817317834E-07
   1.500628464296406E-07   1.538617052773194E-07   1.577567326845371E-07
   1.617503631694540E-07   1.658450928803247E-07   1.700434811556701E-07
   1.743481521239448E-07   1.787617963437009E-07   1.832871724852723E-07
   1.879271090550306E-07   1.926845061632922E-07   1.975623373369780E-07
   2.025636513781614E-07   2.076915742696667E-07   2.129493111289062E-07
   2.183401482111812E-07   2.238674549636926E-07   2.295346861315534E-07
   2.353453839171120E-07   2.413031801939399E-07   2.474117987768686E-07
   2.536750577494875E-07   2.600968718505679E-07   2.666812549208963E-07
   2.734323224120509E-07   2.803542939586877E-07   2.874514960159425E-07
   2.947283645636013E-07   3.021894478787251E-07   3.098394093784641E-07
   3.176830305348410E-07   3.257252138633150E-07   3.339709859870086E-07
   3.424255007785020E-07   3.510940425811621E-07   3.599820295120221E-07
   3.690950168482686E-07   3.784387004994628E-07   3.880189205676582E-07
   3.978416649976432E-07   4.079130733195921E-07   4.182394404864563E-07
   4.288272208085034E-07   4.396830319874579E-07   4.508136592527654E-07
   4.622260596025692E-07   4.739273661520418E-07   4.859248925917997E-07
   4.982261377591811E-07   5.108387903252430E-07   5.237707336004164E-07
   5.370300504618070E-07   5.506250284052376E-07   5.645641647251809E-07
   5.788561718258211E-07   5.935099826665687E-07   6.085347563454192E-07
   6.239398838236666E-07   6.397349937955272E-07   6.559299587063594E-07
   6.725349009232334E-07   6.895601990617020E-07   7.070164944727445E-07
   7.249146978939159E-07   7.432659962688771E-07   7.620818597395625E-07
   7.813740488153415E-07   8.011546217236803E-07   8.214359419468796E-07
   8.422306859496025E-07   8.635518511020300E-07   8.854127638035793E-07
   9.078270878122861E-07   9.308088327850343E-07   9.543723630339850E-07
   9.785324065046794E-07   1.003304063981402E-06   1.028702818525597E-06
   1.054744545153211E-06   1.081445520757001E-06   1.108822434280059E-06
   1.136892397146829E-06   1.165672953958231E-06   1.195182093457495E-06
   1.225438259773613E-06   1.256460363949416E-06   1.288267795761462E-06
   1.320880435839169E-06   1.354318668090722E-06   1.388603392443545E-06
   1.423756037907306E-06   1.459798575967581E-06   1.496753534318604E-06
   1.534644010943642E-06   1.573493688551813E-06   1.613326849380379E-06
   1.654168390371729E-06   1.696043838734595E-06   1.738979367899164E-06
   1.783001813876115E-06   1.828138692029767E-06   1.874418214275820E-06
   1.921869306714484E-06   1.970521627709946E-06   2.020405586427540E-06
   2.071552361840172E-06   2.123993922215868E-06   2.177763045098658E-06
   2.232893337795264E-06   2.289419258380392E-06   2.347376137233784E-06
   2.406800199122433E-06   2.467728585841826E-06   2.530199379430338E-06
   2.594251625971266E-06   2.659925359997434E-06   2.727261629513535E-06
   2.796302521651946E-06   2.867091188977978E-06   2.939671876461037E-06
   3.014089949128551E-06   3.090391920419901E-06   3.168625481258158E-06
   3.248839529857729E-06   3.331084202286546E-06   3.415410903801966E-06
   3.501872340979840E-06   3.590522554656968E-06   3.681416953707434E-06
   3.774612349673962E-06   3.870166992275970E-06   3.968140605816403E-06
   4.068594426510243E-06   4.171591240757938E-06   4.277195424387655E-06
   4.385472982890965E-06   4.496491592676976E-06   4.610320643370863E-06
   4.727031281183062E-06   4.846696453376340E-06   4.969390953858547E-06
   5.095191469929332E-06   5.224176630210438E-06   5.356427053789064E-06
   5.492025400605356E-06   5.631056423115409E-06   5.773607019261882E-06
   5.919766286785753E-06   6.069625578912638E-06   6.223278561448891E-06
   6.380821271322999E-06   6.542352176608683E-06   6.707972238067720E-06
   6.877784972250255E-06   7.051896516192647E-06   7.230415693752978E-06
   7.413454083625553E-06   7.601126089077403E-06   7.793549009449669E-06
   7.990843113469168E-06   8.193131714415620E-06   8.400541247191440E-06
   8.613201347342713E-06   8.831244932080063E-06   9.054808283350600E-06
   9.284031133012665E-06   9.519056750166322E-06   9.760032030694842E-06
   1.000710758907226E-05   1.026043785249511E-05   1.052018115739683E-05
   1.078649984840493E-05   1.105956037980342E-05   1.133953341956306E-05
   1.162659395600506E-05   1.192092140716474E-05   1.222269973292301E-05
   1.253211754997673E-05   1.284936824971854E-05   1.317465011910088E-05
   1.350816646455919E-05   1.385012573907149E-05   1.420074167243461E-05
   1.456023340483734E-05   1.492882562381477E-05   1.530674870466919E-05
   1.569423885444478E-05   1.609153825954708E-05   1.649889523709824E-05
   1.691656439012354E-05   1.734480676666582E-05   1.778389002292673E-05
   1.823408859053793E-05   1.869568384806523E-05   1.916896429685396E-05
   1.965422574132505E-05   2.015177147383386E-05   2.066191246420869E-05
   2.118496755408547E-05   2.172126365616161E-05   2.227113595849282E-05
   2.283492813395995E-05   2.341299255503822E-05   2.400569051400115E-05
   2.461339244869803E-05   2.523647817404573E-05   2.587533711937837E-05
   2.653036857180517E-05   2.720198192572610E-05   2.789059693866281E-05
   2.859664399356434E-05   2.932056436775023E-05   3.006281050866119E-05
   3.082384631658710E-05   3.160414743455063E-05   3.240420154552701E-05
   3.322450867718459E-05   3.406558151433867E-05   3.492794571931101E-05
   3.581214026039709E-05   3.671871774864545E-05   3.764824478315899E-05
   3.860130230513480E-05   3.957848596086236E-05   4.058040647390776E-05
   4.160769002671585E-05   4.266097865186806E-05   4.374093063324133E-05
   4.484822091731716E-05   4.598354153489848E-05   4.714760203349744E-05
   4.834112992066329E-05   4.956487111852816E-05   5.081959042985321E-05
   5.210607201586716E-05   5.342511988619456E-05   5.477755840117963E-05
   5.616423278691979E-05   5.758600966332918E-05   5.904377758556257E-05
   6.053844759913715E-05   6.207095380909816E-05   6.364225396358424E-05
   6.525333005215552E-05   6.690518891925871E-05   6.859886289321133E-05
   7.033541043109710E-05   7.211591677997550E-05   7.394149465481714E-05
   7.581328493358814E-05   7.773245736991696E-05   7.970021132378761E-05
   8.171777651071592E-05   8.378641376987428E-05   8.590741585164532E-05
   8.808210822509526E-05   9.031184990586882E-05   9.259803430502391E-05
   9.494209009933331E-05   9.734548212359697E-05   9.980971228552060E-05
   1.023363205037298E-04   1.049268856695065E-04   1.075830266328438E-04
   1.103064032134360E-04   1.130987172372334E-04   1.159617135992049E-04
   1.188971813529746E-04   1.219069548280072E-04   1.249929147750397E-04
   1.281569895404735E-04   1.314011562704545E-04   1.347274421453962E-04
   1.381379256457088E-04   1.416347378495259E-04   1.452200637632351E-04
   1.488961436856401E-04   1.526652746066036E-04   1.565298116410413E-04
   1.604921694991586E-04   1.645548239938454E-04   1.687203135861642E-04
   1.729912409698958E-04   1.773702746961252E-04   1.818601508388790E-04
   1.864636747028488E-04   1.911837225742626E-04   1.960232435159925E-04
   2.009852612080128E-04   2.060728758343522E-04   2.112892660177146E-04
   2.166376908029649E-04   2.221214916907175E-04   2.277440947222839E-04
   2.335090126172784E-04   2.394198469652077E-04   2.454802904723994E-04
   2.516941292656718E-04   2.580652452541661E-04   2.645976185508100E-04
   2.712953299549124E-04   2.781625634974315E-04   2.852036090504855E-04
   2.924228650027330E-04   2.998248410022738E-04   3.074141607687706E-04
   3.151955649765364E-04   3.231739142103620E-04   3.313541919959279E-04
   3.397415079066638E-04   3.483411007489814E-04   3.571583418278546E-04
   3.661987382947554E-04   3.754679365800285E-04   3.849717259118134E-04
   3.947160419236955E-04   4.047069703533136E-04   4.149507508341978E-04
   4.254537807831932E-04   4.362226193858548E-04   4.472639916822790E-04
   4.585847927558905E-04   4.701920920277565E-04   4.820931376590909E-04
   4.942953610646456E-04   5.068063815397727E-04   5.196340110040110E-04
   5.327862588640985E-04   5.462713369994225E-04   5.600976648729544E-04
   5.742738747708189E-04   5.888088171737146E-04   6.037115662634729E-04
   6.189914255681517E-04   6.346579337491104E-04   6.507208705336213E-04
   6.671902627966542E-04   6.840763907955425E-04   7.013897945613718E-04
   7.191412804509823E-04   7.373419278635921E-04   7.560030961261587E-04
   7.751364315516595E-04   7.947538746746264E-04   8.148676676683261E-04
   8.354903619481187E-04   8.566348259656258E-04   8.783142531984364E-04
   9.005421703402409E-04   9.233324456963424E-04   9.466992977896631E-04
   9.706573041824700E-04   9.952214105191479E-04   1.020406939795534E-03
   1.046229601860405E-03   1.072705503154869E-03   1.099851156695565E-03
   1.127683492307670E-03   1.156219867113921E-03   1.185478076285970E-03
   1.215476364064526E-03   1.246233435054948E-03   1.277768465805066E-03
   1.310101116672161E-03   1.343251543986285E-03   1.377240412517140E-03
   1.412088908252035E-03   1.447818751492536E-03   1.484452210277627E-03
   1.522012114141424E-03   1.560521868213598E-03   1.600005467670934E-03
   1.640487512548599E-03   1.681993222919908E-03   1.724548454453600E-03
   1.768179714357825E-03   1.812914177720275E-03   1.858779704254098E-03
   1.905804855459453E-03   1.954018912210836E-03   2.003451892780485E-03
   2.054134571308439E-03   2.106098496730094E-03   2.159376012172254E-03
   2.214000274829087E-03   2.270005276329486E-03   2.327425863607712E-03
   2.386297760289442E-03   2.446657588605540E-03   2.508542891846316E-03
   2.571992157369133E-03   2.637044840172648E-03   2.703741387051230E-03
   2.772123261343327E-03   2.842232968288016E-03   2.914114081004137E-03
   2.987811267106786E-03   3.063370315976299E-03   3.140838166695096E-03
   3.220262936668219E-03   3.301693950943612E-03   3.385181772248611E-03
   3.470778231759472E-03   3.558536460621012E-03   3.648510922234005E-03
   3.740757445328120E-03   3.835333257838716E-03   3.932297021606157E-03
   4.031708867916592E-03   4.133630433903713E-03   4.238124899831292E-03
   4.345257027276623E-03   4.455093198235663E-03   4.567701455170686E-03
   4.683151542022117E-03   4.801514946206249E-03   4.922864941621250E-03
   5.047276632684127E-03   5.174826999421763E-03   5.305594943639742E-03
   5.439661336192878E-03   5.577109065381973E-03   5.718023086501755E-03
   5.862490472565256E-03   6.010600466230599E-03   6.162444532956380E-03
   6.318116415412349E-03   6.477712189172710E-03   6.641330319719431E-03
   6.809071720783956E-03   6.981039814055628E-03   7.157340590285928E-03
   7.338082671818019E-03   7.523377376571305E-03   7.713338783511619E-03
   7.908083799637589E-03   8.107732228514502E-03   8.312406840387351E-03
   8.522233443904926E-03   8.737340959487720E-03   8.957861494372282E-03
   9.183930419365360E-03   9.415686447341590E-03   9.653271713518501E-03
   9.896831857543451E-03   1.014651610742706E-02   1.040247736535812E-02
   1.066487229543548E-02   1.093386141335215E-02   1.120960917806779E-02
   1.149228408550550E-02   1.178205876430911E-02   1.207911007369747E-02
   1.238361920345219E-02   1.269577177607563E-02   1.301575795115559E-02
   1.334377253197367E-02   1.368001507439386E-02   1.402468999806778E-02
   1.437800669999347E-02   1.474017967046355E-02   1.511142861143912E-02
   1.549197855738503E-02   1.588205999860167E-02   1.628190900708855E-02
   1.669176736497379E-02   1.711188269554333E-02   1.754250859690308E-02
   1.798390477830590E-02   1.843633719917537E-02   1.890007821085625E-02
   1.937540670112106E-02   1.986260824146122E-02   2.036197523718856E-02
   2.087380708037340E-02   2.139841030564220E-02   2.193609874885665E-02
   2.248719370869429E-02   2.305202411114803E-02   2.363092667696036E-02
   2.422424609200505E-02   2.483233518062665E-02   2.545555508194531E-02
   2.609427542913080E-02   2.674887453164717E-02   2.741973956046512E-02
   2.810726673623528E-02   2.881186152041251E-02   2.953393880931468E-02
   3.027392313109778E-02   3.103224884562087E-02   3.180936034717148E-02
   3.260571227001518E-02   3.342176969672608E-02   3.425800836925097E-02
   3.511491490264998E-02   3.599298700145112E-02   3.689273367854744E-02
   3.781467547655709E-02   3.875934469155819E-02   3.972728559910069E-02
   4.071905468238700E-02   4.173522086250381E-02   4.277636573057424E-02
   4.384308378169029E-02   4.493598265047061E-02   4.605568334807671E-02
   4.720282050050649E-02   4.837804258796830E-02   4.958201218512491E-02
   5.081540620197840E-02   5.207891612515071E-02   5.337324825929621E-02
   5.469912396836207E-02   5.605727991639451E-02   5.744846830756434E-02
   5.887345712506539E-02   6.033303036851427E-02   6.182798828945440E-02
   6.335914762454357E-02   6.492734182597378E-02   6.653342128864455E-02
   6.817825357358163E-02   6.986272362705774E-02   7.158773399484314E-02
   7.335420503097474E-02   7.516307510039796E-02   7.701530077479650E-02
   7.891185702088382E-02   8.085373738039045E-02   8.284195414093387E-02
   8.487753849691405E-02   8.696154069952862E-02   8.909503019494922E-02
   9.127909574965226E-02   9.351484556183789E-02   9.580340735781519E-02
   9.814592847217345E-02   1.005435759104920E-01   1.029975363932834E-01
   1.055090163797889E-01   1.080792420701808E-01   1.107094593846500E-01
   1.134009339177795E-01   1.161549508665304E-01   1.189728149300779E-01
   1.218558501796542E-01   1.248053998964654E-01   1.278228263756545E-01
   1.309095106941943E-01   1.340668524404866E-01   1.372962694033503E-01
   1.405991972179718E-01   1.439770889662787E-01   1.474314147290972E-01
   1.509636610873241E-01   1.545753305692347E-01   1.582679410409235E-01
   1.620430250367438E-01   1.659021290264930E-01   1.698468126159480E-01
   1.738786476772253E-01   1.779992174053026E-01   1.822101152968895E-01
   1.865129440477043E-01   1.909093143640530E-01   1.954008436844660E-01
   1.999891548069976E-01   2.046758744176302E-01   2.094626315150884E-01
   2.143510557271942E-01   2.193427755137515E-01   2.244394162507882E-01
   2.296425981908227E-01   2.349539342936790E-01   2.403750279222088E-01
   2.459074703971368E-01   2.515528384050942E-01   2.573126912537598E-01
   2.631885679678959E-01   2.691819842199260E-01   2.752944290885813E-01
   2.815273616390233E-01   2.878822073177394E-01   2.943603541554228E-01
   3.009631487709495E-01   3.076918921695089E-01   3.145478353278883E-01
   3.215321745598677E-01   3.286460466546886E-01   3.358905237815470E-01
   3.432666081531096E-01   3.507752264411108E-01   3.584172239371733E-01
   3.661933584521417E-01   3.741042939473541E-01   3.821505938915076E-01
   3.903327143370049E-01   3.986509967099683E-01   4.071056603084615E-01
   4.156967945038566E-01   4.244243506407510E-01   4.332881336313739E-01
   4.422877932410093E-01   4.514228150616625E-01   4.606925111719307E-01
   4.700960104819016E-01   4.796322487628375E-01   4.892999583624314E-01
   4.990976576075846E-01   5.090236398978969E-01   5.190759624944369E-01
   5.292524350098776E-01   5.395506076076938E-01   5.499677589199257E-01
   5.605008836949116E-01   5.711466801884896E-01   5.819015373144207E-01
   5.927615215721699E-01   6.037223637728363E-01   6.147794455867354E-01
   6.259277859391618E-01   6.371620272840333E-01   6.484764217884441E-01
   6.598648174648399E-01   6.713206442912371E-01   6.828369003640149E-01
   6.944061381320455E-01   7.060204507653777E-01   7.176714587164733E-01
   7.293502965368702E-01   7.410476000173617E-01   7.527534937251827E-01
   7.644575790172600E-01   7.761489226144961E-01   7.878160458279947E-01
   7.994469145344205E-01   8.110289300040734E-01   8.225489206917420E-01
   8.339931351071721E-01   8.453472358886698E-01   8.565962952102653E-01
   8.677247916597411E-01   8.787166087316493E-01   8.895550350863459E-01
   9.002227667326875E-01   9.107019112986290E-01   9.209739945602592E-01
   9.310199694057484E-01   9.408202274163455E-01   9.503546132516113E-01
   9.596024420306235E-01   9.685425199047537E-01   9.771531680205692E-01
   9.854122500736088E-01   9.932972036547232E-01   1.000785075590541E+00
   1.007852561478085E+00   1.014476049610434E+00   1.020631669485643E+00
   1.026295345084394E+00   1.031442853093225E+00   1.036049886239143E+00
   1.040092121888017E+00   1.043545296043054E+00   1.046385282860630E+00
   1.048588179778712E+00   1.050130398327698E+00   1.050988760664601E+00
   1.051140601838883E+00   1.050563877761710E+00   1.049237278809717E+00
   1.047140348949465E+00   1.044253610219372E+00   1.040558692351954E+00
   1.036038467260564E+00   1.030677188051422E+00   1.024460632153503E+00
   1.017376248085847E+00   1.009413305304048E+00   1.000563046485234E+00
   9.908188415238502E-01   9.801763424192702E-01   9.686336381409324E-01
   9.561914084576282E-01   9.428530756153194E-01   9.286249526427459E-01
   9.135163869567393E-01   8.975398978304058E-01   8.807113061774953E-01
   8.630498549966604E-01   8.445783187103293E-01   8.253230995257604E-01
   8.053143088415715E-01   7.845858316222970E-01   7.631753715679810E-01
   7.411244748159370E-01   7.184785298291128E-01   6.952867410510001E-01
   6.716020738414185E-01   6.474811681523371E-01   6.229842183584959E-01
   5.981748166250671E-01   5.731197571746764E-01   5.478887988089219E-01
   5.225543830461147E-01   4.971913052569557E-01   4.718763362137977E-01
   4.466877915171068E-01   4.217050464242915E-01   3.970079936819638E-01
   3.726764420523835E-01   3.487894533292406E-01   3.254246157578006E-01
   3.026572519110069E-01   2.805595592292907E-01   2.591996816107027E-01
   2.386407106450144E-01   2.189396153278065E-01   2.001460993775836E-01
   1.823013856236656E-01   1.654369273506191E-01   1.495730469968856E-01
   1.347175032358939E-01   1.208639882473317E-01   1.079905579509733E-01
   9.605799916744356E-02   8.500813913899212E-02   7.477679391725067E-02
   6.534242366756160E-02   5.669225563599301E-02   4.880919621641688E-02
   4.167198083864931E-02   3.525537264826872E-02   2.953040992445644E-02
   2.446470139745388E-02   2.002276779224438E-02   1.616642703499160E-02
   1.285521998608241E-02   1.004687032505436E-02   7.697781618694777E-03
   5.763546061162916E-03   4.199476542522174E-03   2.961159127264301E-03
   2.005006432864664E-03   1.288803534861771E-03   7.722408610532638E-04
   4.174266250731584E-04   1.893711603058734E-04   5.643598451582355E-05
  -9.258948431456471E-06  -3.147561042815550E-05  -2.955087319872485E-05
  -1.814630667174022E-05  -7.058334833720536E-06  -1.091818084608676E-06
  -1.110223024625157E-16   0.000000000000000E+00   0.000000000000000E+00
   0.000000000000000E+00   0.000000000000000E+00   0.000000000000000E+00
   0.000000000000000E+00   0.000000000000000E+00   0.000000000000000E+00
   0.000000000000000E+00   0.000000000000000E+00   0.000000000000000E+00
   0.000000000000000E+00   0.000000000000000E+00   0.000000000000000E+00
   0.000000000000000E+00   0.000000000000000E+00   0.000000000000000E+00
   0.000000000000000E+00   0.000000000000000E+00   0.000000000000000E+00
   0.000000000000000E+00   0.000000000000000E+00   0.000000000000000E+00
   0.000000000000000E+00   0.000000000000000E+00   0.000000000000000E+00
   0.000000000000000E+00   0.000000000000000E+00   0.000000000000000E+00
   0.000000000000000E+00   0.000000000000000E+00   0.000000000000000E+00
   0.000000000000000E+00   0.000000000000000E+00   0.000000000000000E+00
   0.000000000000000E+00   0.000000000000000E+00   0.000000000000000E+00
   0.000000000000000E+00   0.000000000000000E+00   0.000000000000000E+00
   0.000000000000000E+00   0.000000000000000E+00   0.000000000000000E+00
   0.000000000000000E+00   0.000000000000000E+00   0.000000000000000E+00
   0.000000000000000E+00   0.000000000000000E+00   0.000000000000000E+00
   0.000000000000000E+00   0.000000000000000E+00   0.000000000000000E+00
   0.000000000000000E+00   0.000000000000000E+00   0.000000000000000E+00
   0.000000000000000E+00   0.000000000000000E+00   0.000000000000000E+00
   0.000000000000000E+00   0.000000000000000E+00   0.000000000000000E+00
   0.000000000000000E+00   0.000000000000000E+00   0.000000000000000E+00
   0.000000000000000E+00   0.000000000000000E+00   0.000000000000000E+00
   0.000000000000000E+00   0.000000000000000E+00   0.000000000000000E+00
   0.000000000000000E+00   0.000000000000000E+00   0.000000000000000E+00
   0.000000000000000E+00   0.000000000000000E+00   0.000000000000000E+00
   0.000000000000000E+00   0.000000000000000E+00   0.000000000000000E+00
   0.000000000000000E+00   0.000000000000000E+00   0.000000000000000E+00
   0.000000000000000E+00   0.000000000000000E+00   0.000000000000000E+00
   0.000000000000000E+00   0.000000000000000E+00   0.000000000000000E+00
   0.000000000000000E+00   0.000000000000000E+00   0.000000000000000E+00
   0.000000000000000E+00   0.000000000000000E+00   0.000000000000000E+00
   0.000000000000000E+00   0.000000000000000E+00   0.000000000000000E+00
   0.000000000000000E+00   0.000000000000000E+00   0.000000000000000E+00
   0.000000000000000E+00   0.000000000000000E+00   0.000000000000000E+00
   0.000000000000000E+00   0.000000000000000E+00   0.000000000000000E+00
   0.000000000000000E+00   0.000000000000000E+00   0.000000000000000E+00
   0.000000000000000E+00   0.000000000000000E+00   0.000000000000000E+00
   0.000000000000000E+00   0.000000000000000E+00   0.000000000000000E+00
   0.000000000000000E+00   0.000000000000000E+00   0.000000000000000E+00
   0.000000000000000E+00   0.000000000000000E+00   0.000000000000000E+00
   0.000000000000000E+00   0.000000000000000E+00   0.000000000000000E+00
   0.000000000000000E+00   0.000000000000000E+00   0.000000000000000E+00
   0.000000000000000E+00   0.000000000000000E+00   0.000000000000000E+00
   0.000000000000000E+00   0.000000000000000E+00   0.000000000000000E+00
   0.000000000000000E+00   0.000000000000000E+00   0.000000000000000E+00
   0.000000000000000E+00   0.000000000000000E+00   0.000000000000000E+00
   0.000000000000000E+00   0.000000000000000E+00   0.000000000000000E+00
   0.000000000000000E+00   0.000000000000000E+00   0.000000000000000E+00
   0.000000000000000E+00   0.000000000000000E+00   0.000000000000000E+00
   0.000000000000000E+00   0.000000000000000E+00   0.000000000000000E+00
   0.000000000000000E+00   0.000000000000000E+00   0.000000000000000E+00
   0.000000000000000E+00   0.000000000000000E+00   0.000000000000000E+00
   0.000000000000000E+00   0.000000000000000E+00   0.000000000000000E+00
   0.000000000000000E+00   0.000000000000000E+00   0.000000000000000E+00
   0.000000000000000E+00   0.000000000000000E+00   0.000000000000000E+00
   0.000000000000000E+00   0.000000000000000E+00   0.000000000000000E+00
   0.000000000000000E+00   0.000000000000000E+00   0.000000000000000E+00
   0.000000000000000E+00   0.000000000000000E+00   0.000000000000000E+00
   0.000000000000000E+00   0.000000000000000E+00   0.000000000000000E+00
   0.000000000000000E+00   0.000000000000000E+00   0.000000000000000E+00
   0.000000000000000E+00   0.000000000000000E+00   0.000000000000000E+00
   0.000000000000000E+00   0.000000000000000E+00   0.000000000000000E+00
   0.000000000000000E+00   0.000000000000000E+00   0.000000000000000E+00
   0.000000000000000E+00   0.000000000000000E+00   0.000000000000000E+00
   0.000000000000000E+00   0.000000000000000E+00   0.000000000000000E+00
   0.000000000000000E+00   0.000000000000000E+00   0.000000000000000E+00
   0.000000000000000E+00   0.000000000000000E+00   0.000000000000000E+00
   0.000000000000000E+00   0.000000000000000E+00   0.000000000000000E+00
   0.000000000000000E+00   0.000000000000000E+00   0.000000000000000E+00
   0.000000000000000E+00   0.000000000000000E+00   0.000000000000000E+00
   0.000000000000000E+00   0.000000000000000E+00   0.000000000000000E+00
   0.000000000000000E+00   0.000000000000000E+00   0.000000000000000E+00
   0.000000000000000E+00   0.000000000000000E+00   0.000000000000000E+00
   0.000000000000000E+00   0.000000000000000E+00   0.000000000000000E+00
   0.000000000000000E+00   0.000000000000000E+00   0.000000000000000E+00
   0.000000000000000E+00   0.000000000000000E+00   0.000000000000000E+00
   0.000000000000000E+00   0.000000000000000E+00   0.000000000000000E+00
   0.000000000000000E+00   0.000000000000000E+00   0.000000000000000E+00
   0.000000000000000E+00   0.000000000000000E+00   0.000000000000000E+00
   0.000000000000000E+00   0.000000000000000E+00   0.000000000000000E+00
   0.000000000000000E+00   0.000000000000000E+00   0.000000000000000E+00
   0.000000000000000E+00   0.000000000000000E+00   0.000000000000000E+00
   0.000000000000000E+00   0.000000000000000E+00   0.000000000000000E+00
   0.000000000000000E+00   0.000000000000000E+00   0.000000000000000E+00
   0.000000000000000E+00   0.000000000000000E+00   0.000000000000000E+00
   0.000000000000000E+00   0.000000000000000E+00   0.000000000000000E+00
   0.000000000000000E+00   0.000000000000000E+00   0.000000000000000E+00
   0.000000000000000E+00   0.000000000000000E+00   0.000000000000000E+00
   0.000000000000000E+00   0.000000000000000E+00   0.000000000000000E+00
   0.000000000000000E+00   0.000000000000000E+00   0.000000000000000E+00
   0.000000000000000E+00   0.000000000000000E+00   0.000000000000000E+00
   0.000000000000000E+00   0.000000000000000E+00   0.000000000000000E+00
   0.000000000000000E+00   0.000000000000000E+00   0.000000000000000E+00
   0.000000000000000E+00   0.000000000000000E+00   0.000000000000000E+00
   0.000000000000000E+00   0.000000000000000E+00   0.000000000000000E+00
   0.000000000000000E+00   0.000000000000000E+00   0.000000000000000E+00
   0.000000000000000E+00   0.000000000000000E+00   0.000000000000000E+00
   0.000000000000000E+00   0.000000000000000E+00   0.000000000000000E+00
   0.000000000000000E+00   0.000000000000000E+00   0.000000000000000E+00
   0.000000000000000E+00   0.000000000000000E+00   0.000000000000000E+00
   0.000000000000000E+00   0.000000000000000E+00   0.000000000000000E+00
   0.000000000000000E+00   0.000000000000000E+00   0.000000000000000E+00
   0.000000000000000E+00   0.000000000000000E+00   0.000000000000000E+00
   0.000000000000000E+00   0.000000000000000E+00   0.000000000000000E+00
   0.000000000000000E+00   0.000000000000000E+00   0.000000000000000E+00
   0.000000000000000E+00   0.000000000000000E+00   0.000000000000000E+00
   0.000000000000000E+00   0.000000000000000E+00   0.000000000000000E+00
   0.000000000000000E+00   0.000000000000000E+00   0.000000000000000E+00
   0.000000000000000E+00   0.000000000000000E+00   0.000000000000000E+00
   0.000000000000000E+00   0.000000000000000E+00   0.000000000000000E+00
   0.000000000000000E+00   0.000000000000000E+00   0.000000000000000E+00
   0.000000000000000E+00   0.000000000000000E+00   0.000000000000000E+00
   0.000000000000000E+00   0.000000000000000E+00   0.000000000000000E+00
   0.000000000000000E+00   0.000000000000000E+00   0.000000000000000E+00
   0.000000000000000E+00   0.000000000000000E+00   0.000000000000000E+00
   0.000000000000000E+00
      </PP_QIJL.3.3.0>
      <PP_QIJL.3.3.2 first_index="3" second_index="3" composite_index="6" angular_momentum="2" size="1129">
   3.600844711612318E-15   3.785463963933508E-15   3.979548847427787E-15
   4.183584675359486E-15   4.398081643534259E-15   4.623576106054059E-15
   4.860631916481530E-15   5.109841837767378E-15   5.371829024466131E-15
   5.647248580946915E-15   5.936789199495144E-15   6.241174882401649E-15
   6.561166752345107E-15   6.897564955594753E-15   7.251210662792459E-15
   7.622988172316831E-15   8.013827121489342E-15   8.424704811151261E-15
   8.856648649424140E-15   9.310738720764733E-15   9.788110486737842E-15
   1.028995762526096E-14   1.081753501542000E-14   1.137216187531969E-14
   1.195522506081513E-14   1.256818253337258E-14   1.321256700573153E-14
   1.388998977448365E-14   1.460214474915220E-14   1.535081268784690E-14
   1.613786565008497E-14   1.696527167791358E-14   1.783509971703823E-14
   1.874952479026271E-14   1.971083343617718E-14   2.072142942669314E-14
   2.178383977772301E-14   2.290072106803358E-14   2.407486608207384E-14
   2.530921079338805E-14   2.660684170607521E-14   2.797100357265381E-14
   2.940510750762934E-14   3.091273951705325E-14   3.249766946540199E-14
   3.416386050219638E-14   3.591547897193518E-14   3.775690483212082E-14
   3.969274260542869E-14   4.172783289340611E-14   4.386726448049012E-14
   4.611638705861240E-14   4.848082460420731E-14   5.096648944107355E-14
   5.357959702425517E-14   5.632668148190508E-14   5.921461195399908E-14
   6.225060976875214E-14   6.544226649968732E-14   6.879756294851155E-14
   7.232488910126100E-14   7.603306510762133E-14   7.993136333587940E-14
   8.402953155865492E-14   8.833781732739105E-14   9.286699359654803E-14
   9.762838566157888E-14   1.026338994780424E-13   1.078960514326667E-13
   1.134279996408083E-13   1.192435768485617E-13   1.253573250217980E-13
   1.317845317086178E-13   1.385412682661456E-13   1.456444300472541E-13
   1.531117786476995E-13   1.609619863193159E-13   1.692146826603181E-13
   1.778905036994660E-13   1.870111434968265E-13   1.965994083901549E-13
   2.066792740225518E-13   2.172759452939816E-13   2.284159193865703E-13
   2.401270520212763E-13   2.524386271116036E-13   2.653814299885405E-13
   2.789878243798100E-13   2.932918333359289E-13   3.083292243054307E-13
   3.241375985719743E-13   3.407564852769934E-13   3.582274402629805E-13
   3.765941499845630E-13   3.959025407472145E-13   4.162008935467334E-13
   4.375399647966689E-13   4.599731132455583E-13   4.835564334013392E-13
   5.083488957965752E-13   5.344124944451985E-13   5.618124018595322E-13
   5.906171320151747E-13   6.208987116712585E-13   6.527328604744834E-13
   6.861991802972313E-13   7.213813542832664E-13   7.583673560986819E-13
   7.972496699113604E-13   8.381255216490017E-13   8.810971221139508E-13
   9.262719225627876E-13   9.737628833897191E-13   1.023688756585625E-12
   1.076174382679071E-12   1.131351002901739E-12   1.189356587358904E-12
   1.250336180025531E-12   1.314442261430617E-12   1.381835129936750E-12
   1.452683302568177E-12   1.527163936389749E-12   1.605463271490333E-12
   1.687777096678409E-12   1.774311239054318E-12   1.865282078683299E-12
   1.960917089656325E-12   2.061455408891605E-12   2.167148434099047E-12
   2.278260452402945E-12   2.395069301194635E-12   2.517867062867748E-12
   2.646960795173095E-12   2.782673299019523E-12   2.925343925640618E-12
   3.075329425145478E-12   3.233004838575487E-12   3.398764435697602E-12
   3.573022700879062E-12   3.756215369508829E-12   3.948800517557087E-12
   4.151259706997499E-12   4.364099189956167E-12   4.587851174598278E-12
   4.823075155917886E-12   5.070359314758219E-12   5.330321988561014E-12
   5.603613217522298E-12   5.890916370020751E-12   6.192949851383192E-12
   6.510468900259573E-12   6.844267477099699E-12   7.195180249453466E-12
   7.564084679058957E-12   7.951903215937176E-12   8.359605604979407E-12
   8.788211310795165E-12   9.238792066883815E-12   9.712474555503856E-12
   1.021044322494124E-11   1.073394325122057E-11   1.128428365166560E-11
   1.186284055809378E-11   1.247106065782974E-11   1.311046481114188E-11
   1.378265185414653E-11   1.448930259669053E-11   1.523218402520637E-11
   1.601315372105105E-11   1.683416450537572E-11   1.769726932213946E-11
   1.860462637147944E-11   1.955850450627018E-11   2.056128890536816E-11
   2.161548703772662E-11   2.272373493229220E-11   2.388880376936452E-11
   2.511360680989524E-11   2.640120668005710E-11   2.775482302929573E-11
   2.917784058101162E-11   3.067381759600618E-11   3.224649476984925E-11
   3.389980458641962E-11   3.563788115100458E-11   3.746507052754401E-11
   3.938594160587115E-11   4.140529752611673E-11   4.352818768884718E-11
   4.575992038096565E-11   4.810607604894341E-11   5.057252125257654E-11
   5.316542333414975E-11   5.589126583969331E-11   5.875686473088983E-11
   6.176938542816397E-11   6.493636072757798E-11   6.826570963632206E-11
   7.176575717390400E-11   7.544525518854640E-11   7.931340424083496E-11
   8.337987660934814E-11   8.765484047577554E-11   9.214898535000938E-11
   9.687354879877641E-11   1.018403445446372E-10   1.070617920056235E-10
   1.125509473493572E-10   1.183215361393104E-10   1.243879876548290E-10
   1.307654709707262E-10   1.374699328866729E-10   1.445181378012020E-10
   1.519277096300393E-10   1.597171758735687E-10   1.679060139436030E-10
   1.765146998653151E-10   1.855647594760737E-10   1.950788222492162E-10
   2.050806778773291E-10   2.155953357565003E-10   2.266490875202982E-10
   2.382695727797958E-10   2.504858482340386E-10   2.633284603237404E-10
   2.768295216098465E-10   2.910227910679690E-10   3.059437584994054E-10
   3.216297332698219E-10   3.381199375974668E-10   3.554556046241275E-10
   3.736800815140862E-10   3.928389378387832E-10   4.129800795182180E-10
   4.341538686039568E-10   4.564132492031950E-10   4.798138798587775E-10
   5.044142727160719E-10   5.302759398246973E-10   5.574635469408704E-10
   5.860450752148621E-10   6.160919911678977E-10   6.476794253833509E-10
   6.808863603590831E-10   7.157958279905309E-10   7.524951171782736E-10
   7.910759920791502E-10   8.316349215465305E-10   8.742733203334022E-10
   9.190978026612788E-10   9.662204487888481E-10   1.015759085246845E-09
   1.067837579439683E-09   1.122586149350408E-09   1.180141689123218E-09
   1.240648111337492E-09   1.304256706829043E-09   1.371126522958089E-09
   1.441424761269648E-09   1.515327195540456E-09   1.593018611257471E-09
   1.674693267626701E-09   1.760555383267224E-09   1.850819646804669E-09
   1.945711753640533E-09   2.045468970239159E-09   2.150340727343052E-09
   2.260589243599387E-09   2.376490181156725E-09   2.498333334870743E-09
   2.626423356841804E-09   2.761080518095592E-09   2.902641509310721E-09
   3.051460282594964E-09   3.207908936414232E-09   3.372378645886319E-09
   3.545280640764887E-09   3.727047233558119E-09   3.918132900352066E-09
   4.119015417040264E-09   4.330197053799509E-09   4.552205830797676E-09
   4.785596838271946E-09   5.030953624277126E-09   5.288889653572602E-09
   5.560049841294159E-09   5.845112165244215E-09   6.144789360829713E-09
   6.459830702884315E-09   6.791023878827973E-09   7.139196957845295E-09
   7.505220461004511E-09   7.890009537490215E-09   8.294526252389051E-09
   8.719781991745685E-09   9.166839990899328E-09   9.636817992419737E-09
   1.013089104028441E-08   1.065029441728005E-08   1.119632673296850E-08
   1.177035316993356E-08   1.237380889642101E-08   1.300820265389901E-08
   1.367512052850374E-08   1.437622991579405E-08   1.511328368872157E-08
   1.588812457923111E-08   1.670268978443861E-08   1.755901580889595E-08
   1.845924355504068E-08   1.940562367454895E-08   2.040052219396179E-08
   2.144642642863887E-08   2.254595119981514E-08   2.370184537029179E-08
   2.491699871508840E-08   2.619444914636389E-08   2.753739029872792E-08
   2.894917951126726E-08   3.043334626123564E-08   3.199360089653521E-08
   3.363384399256268E-08   3.535817603770939E-08   3.717090777257938E-08
   3.907657084465809E-08   4.107992921871202E-08   4.318599105515760E-08
   4.540002120707851E-08   4.772755443904529E-08   5.017440915612056E-08
   5.274670205634097E-08   5.545086334359947E-08   5.829365281149184E-08
   6.128217674556132E-08   6.442390567383873E-08   6.772669304570606E-08
   7.119879483161760E-08   7.484889015131130E-08   7.868610298321482E-08
   8.272002496912443E-08   8.696073936259851E-08   9.141884618570306E-08
   9.610548875478329E-08   1.010323815748357E-07   1.062118393836094E-07
   1.116568083888908E-07   1.173808977918322E-07   1.233984149678539E-07
   1.297243998827470E-07   1.363746636634854E-07   1.433658277171584E-07
   1.507153651867530E-07   1.584416447467258E-07   1.665639763576120E-07
   1.751026596916701E-07   1.840790345158330E-07   1.935155342552994E-07
   2.034357420850059E-07   2.138644494559847E-07   2.248277182999855E-07
   2.363529460526781E-07   2.484689342413470E-07   2.612059598640019E-07
   2.745958515044233E-07   2.886720689020993E-07   3.034697859592215E-07
   3.190259787862622E-07   3.353795182692765E-07   3.525712668179927E-07
   3.706441805187899E-07   3.896434163515301E-07   4.096164445868349E-07
   4.306131678816375E-07   4.526860455345291E-07   4.758902242325531E-07
   5.002836759877591E-07   5.259273423322930E-07   5.528852872899959E-07
   5.812248560113913E-07   6.110168441108800E-07   6.423356739132524E-07
   6.752595786538346E-07   7.098708001685537E-07   7.462557920458063E-07
   7.845054368082175E-07   8.247152708556721E-07   8.669857243755266E-07
   9.114223716033349E-07   9.581361925326694E-07   1.007243851705858E-06
   1.058867987998621E-06   1.113137520810642E-06   1.170187971033508E-06
   1.230161799613702E-06   1.293208761748537E-06   1.359486281264703E-06
   1.429159841761972E-06   1.502403400375824E-06   1.579399820189565E-06
   1.660341326249059E-06   1.745429984911248E-06   1.834878206657857E-06
   1.928909275375440E-06   2.027757904631378E-06   2.131670822594531E-06
   2.240907385843813E-06   2.355740225785075E-06   2.476455926398867E-06
   2.603355739618699E-06   2.736756333234016E-06   2.876990580802127E-06
   3.024408388010463E-06   3.179377565722770E-06   3.342284743771629E-06
   3.513536332833106E-06   3.693559536105037E-06   3.882803410929136E-06
   4.081739986084451E-06   4.290865435528137E-06   4.510701311439099E-06
   4.741795841516148E-06   4.984725290466170E-06   5.240095393079008E-06
   5.508542858436281E-06   5.790736951659611E-06   6.087381157352550E-06
   6.399214924753598E-06   6.727015505860500E-06   7.071599882919223E-06
   7.433826797334864E-06   7.814598880627334E-06   8.214864893809789E-06
   8.635622080832259E-06   9.077918641518669E-06   9.542856331724307E-06
   1.003159319285170E-05   1.054534642383889E-05   1.108539539618551E-05
   1.165308482425986E-05   1.224982809448416E-05   1.287711076694799E-05
   1.353649425096402E-05   1.422961967144247E-05   1.495821192784685E-05
   1.572408396217631E-05   1.652914124106395E-05   1.737538646731259E-05
   1.826492452937765E-05   1.919996770214560E-05   2.018284111062536E-05
   2.121598847256752E-05   2.230197812906459E-05   2.344350938348244E-05
   2.464341915975042E-05   2.590468899710301E-05   2.723045240192194E-05
   2.862400256694531E-05   3.008880048382894E-05   3.162848346669917E-05
   3.324687410226434E-05   3.494798965602528E-05   3.673605195216756E-05
   3.861549775147267E-05   4.059098965296929E-05   4.266742754625583E-05
   4.484996063997255E-05   4.714400009750503E-05   4.955523230842817E-05
   5.208963282739351E-05   5.475348101598798E-05   5.755337541950054E-05
   6.049624991788584E-05   6.358939068619459E-05   6.684045400996409E-05
   7.025748499124659E-05   7.384893719465614E-05   7.762369327839717E-05
   8.159108665881096E-05   8.576092425926245E-05   9.014351039680358E-05
   9.474967186624409E-05   9.959078427308234E-05   1.046787996871767E-04
   1.100262756708722E-04   1.156464057593768E-04   1.215530514578674E-04
   1.277607758323269E-04   1.342848787714877E-04   1.411414340042008E-04
   1.483473279525637E-04   1.559203005157654E-04   1.638789878771583E-04
   1.722429674301473E-04   1.810328049310015E-04   1.902701039817955E-04
   1.999775579598638E-04   2.101790045104607E-04   2.208994827256479E-04
   2.321652931424846E-04   2.440040606913171E-04   2.564448007393103E-04
   2.695179883782952E-04   2.832556311085312E-04   2.976913450842290E-04
   3.128604350890262E-04   3.287999784205584E-04   3.455489128654778E-04
   3.631481289666282E-04   3.816405667756666E-04   4.010713173107795E-04
   4.214877289371989E-04   4.429395189014280E-04   4.654788902623006E-04
   4.891606544697057E-04   5.140423598529336E-04   5.401844262974219E-04
   5.676502863897045E-04   5.965065333366277E-04   6.268230759650026E-04
   6.586733011287183E-04   6.921342438622839E-04   7.272867656335744E-04
   7.642157410628909E-04   8.030102534926336E-04   8.437637998044808E-04
   8.865745049008425E-04   9.315453462832358E-04   9.787843891746356E-04
   1.028405032653192E-03   1.080526267287312E-03   1.135272944771796E-03
   1.192776060091199E-03   1.253173046756177E-03   1.316608085675163E-03
   1.383232428251557E-03   1.453204734308834E-03   1.526691425479555E-03
   1.603867054704886E-03   1.684914692526062E-03   1.770026330862552E-03
   1.859403305002829E-03   1.953256734552352E-03   2.051807984115332E-03
   2.155289144501720E-03   2.263943535285348E-03   2.378026229558465E-03
   2.497804601756535E-03   2.623558899449105E-03   2.755582840023441E-03
   2.894184233203692E-03   3.039685630385919E-03   3.192425001778311E-03
   3.352756442374695E-03   3.521050907800986E-03   3.697696981105154E-03
   3.883101671574104E-03   4.077691246690477E-03   4.281912098352054E-03
   4.496231644498846E-03   4.721139267306098E-03   4.957147289115614E-03
   5.204791987283740E-03   5.464634649138458E-03   5.737262668235087E-03
   6.023290683108331E-03   6.323361759705551E-03   6.638148618688228E-03
   6.968354908767011E-03   7.314716527224046E-03   7.678002988746257E-03
   8.059018843667488E-03   8.458605146672432E-03   8.877640976975994E-03
   9.317045010929479E-03   9.777777147944507E-03   1.026084019054877E-02
   1.076728157929890E-02   1.129819518317855E-02   1.185472314599588E-02
   1.243805778916695E-02   1.304944357112798E-02   1.369017910346029E-02
   1.436161922362757E-02   1.506517712403555E-02   1.580232653689442E-02
   1.657460397412533E-02   1.738361102128484E-02   1.823101668418403E-02
   1.911855978655987E-02   2.004805141679591E-02   2.102137742131573E-02
   2.204050094183787E-02   2.310746499323575E-02   2.422439507824606E-02
   2.539350183472676E-02   2.661708371059443E-02   2.789752966093153E-02
   2.923732186108349E-02   3.063903842883545E-02   3.210535614796940E-02
   3.363905318466451E-02   3.524301178730110E-02   3.692022095925681E-02
   3.867377909325604E-02   4.050689655473075E-02   4.242289820047169E-02
   4.442522581760425E-02   4.651744046659184E-02   4.870322471056394E-02
   5.098638471177276E-02   5.337085217440470E-02   5.586068611131343E-02
   5.846007441048012E-02   6.117333517517227E-02   6.400491780983028E-02
   6.695940382168539E-02   7.004150730599885E-02   7.325607508059351E-02
   7.660808643305965E-02   8.010265244162532E-02   8.374501482821081E-02
   8.754054429964520E-02   9.149473833039058E-02   9.561321833744194E-02
   9.990172619531759E-02   1.043661200362637E-01   1.090123692779725E-01
   1.138465488182561E-01   1.188748323332772E-01   1.241034846130893E-01
   1.295388528654459E-01   1.351873569160961E-01   1.410554782311330E-01
   1.471497476844391E-01   1.534767319908948E-01   1.600430187238422E-01
   1.668551998333638E-01   1.739198535802694E-01   1.812435247993987E-01
   1.888327034049077E-01   1.966938010497691E-01   2.048331258517934E-01
   2.132568550991382E-01   2.219710058496761E-01   2.309814033406751E-01
   2.402936471282842E-01   2.499130748802699E-01   2.598447237504479E-01
   2.700932892695153E-01   2.806630816944358E-01   2.915579797674940E-01
   3.027813818466070E-01   3.143361543805911E-01   3.262245777171273E-01
   3.384482892470236E-01   3.510082239064486E-01   3.639045520790946E-01
   3.771366149628144E-01   3.907028574905675E-01   4.046007589232294E-01
   4.188267612625113E-01   4.333761956657505E-01   4.482432070807572E-01
   4.634206773586158E-01   4.789001471449447E-01   4.946717368960936E-01
   5.107240674158267E-01   5.270441803601880E-01   5.436174592136359E-01
   5.604275512976122E-01   5.774562914337437E-01   5.946836279473012E-01
   6.120875517620636E-01   6.296440294051996E-01   6.473269408092615E-01
   6.651080228676944E-01   6.829568197694822E-01   7.008406412067264E-01
   7.187245296155793E-01   7.365712376742992E-01   7.543412173416523E-01
   7.719926217726589E-01   7.894813214952870E-01   8.067609362697422E-01
   8.237828840791047E-01   8.404964487147444E-01   8.568488674196918E-01
   8.727854400357015E-01   8.882496610628964E-01   9.031833759817145E-01
   9.175269631031405E-01   9.312195421019779E-01   9.441992102465294E-01
   9.564033071640925E-01   9.677687087722070E-01   9.782321507586689E-01
   9.877305817065066E-01   9.962015456317280E-01   1.003583593330480E+00
   1.009816721517271E+00   1.014842838277276E+00   1.018606252854053E+00
   1.021054187250932E+00   1.022137306542849E+00   1.021810264179464E+00
   1.020032257915607E+00   1.016767591338602E+00   1.011986235282743E+00
   1.005664382739743E+00   9.977849902034219E-01   9.883382977417529E-01
   9.773223194868877E-01   9.647432956929015E-01   9.506160970528097E-01
   9.349645716141428E-01   9.178218244103666E-01   8.992304198598738E-01
   8.792424971018442E-01   8.579197887656517E-01   8.353335342343715E-01
   8.115642792876780E-01   7.867015551172514E-01   7.608434311170280E-01
   7.340959375733360E-01   7.065723564223798E-01   6.783923806006525E-01
   6.496811451737949E-01   6.205681363641579E-01   5.911859877644952E-01
   5.616691763668183E-01   5.321526344735494E-01   5.027702969957777E-01
   4.736536069625580E-01   4.449300051254165E-01   4.167214321837655E-01
   3.891428741988443E-01   3.623009830098211E-01   3.362928037066564E-01
   3.112046402346256E-01   2.871110877923850E-01   2.640742566377707E-01
   2.421432060580672E-01   2.213535994595418E-01   2.017275817080163E-01
   1.832738680112266E-01   1.659880198774665E-01   1.498528682415732E-01
   1.348390270947025E-01   1.209054234362366E-01   1.079997518261203E-01
   9.605874520479840E-02   8.500813913899199E-02   7.477679391725067E-02
   6.534242366756160E-02   5.669225563599301E-02   4.880919621641688E-02
   4.167198083864931E-02   3.525537264826872E-02   2.953040992445644E-02
   2.446470139745388E-02   2.002276779224438E-02   1.616642703499160E-02
   1.285521998608241E-02   1.004687032505436E-02   7.697781618694777E-03
   5.763546061162916E-03   4.199476542522174E-03   2.961159127264301E-03
   2.005006432864664E-03   1.288803534861771E-03   7.722408610532638E-04
   4.174266250731584E-04   1.893711603058734E-04   5.643598451582355E-05
  -9.258948431456471E-06  -3.147561042815550E-05  -2.955087319872485E-05
  -1.814630667174022E-05  -7.058334833720536E-06  -1.091818084608676E-06
  -1.110223024625157E-16   0.000000000000000E+00   0.000000000000000E+00
   0.000000000000000E+00   0.000000000000000E+00   0.000000000000000E+00
   0.000000000000000E+00   0.000000000000000E+00   0.000000000000000E+00
   0.000000000000000E+00   0.000000000000000E+00   0.000000000000000E+00
   0.000000000000000E+00   0.000000000000000E+00   0.000000000000000E+00
   0.000000000000000E+00   0.000000000000000E+00   0.000000000000000E+00
   0.000000000000000E+00   0.000000000000000E+00   0.000000000000000E+00
   0.000000000000000E+00   0.000000000000000E+00   0.000000000000000E+00
   0.000000000000000E+00   0.000000000000000E+00   0.000000000000000E+00
   0.000000000000000E+00   0.000000000000000E+00   0.000000000000000E+00
   0.000000000000000E+00   0.000000000000000E+00   0.000000000000000E+00
   0.000000000000000E+00   0.000000000000000E+00   0.000000000000000E+00
   0.000000000000000E+00   0.000000000000000E+00   0.000000000000000E+00
   0.000000000000000E+00   0.000000000000000E+00   0.000000000000000E+00
   0.000000000000000E+00   0.000000000000000E+00   0.000000000000000E+00
   0.000000000000000E+00   0.000000000000000E+00   0.000000000000000E+00
   0.000000000000000E+00   0.000000000000000E+00   0.000000000000000E+00
   0.000000000000000E+00   0.000000000000000E+00   0.000000000000000E+00
   0.000000000000000E+00   0.000000000000000E+00   0.000000000000000E+00
   0.000000000000000E+00   0.000000000000000E+00   0.000000000000000E+00
   0.000000000000000E+00   0.000000000000000E+00   0.000000000000000E+00
   0.000000000000000E+00   0.000000000000000E+00   0.000000000000000E+00
   0.000000000000000E+00   0.000000000000000E+00   0.000000000000000E+00
   0.000000000000000E+00   0.000000000000000E+00   0.000000000000000E+00
   0.000000000000000E+00   0.000000000000000E+00   0.000000000000000E+00
   0.000000000000000E+00   0.000000000000000E+00   0.000000000000000E+00
   0.000000000000000E+00   0.000000000000000E+00   0.000000000000000E+00
   0.000000000000000E+00   0.000000000000000E+00   0.000000000000000E+00
   0.000000000000000E+00   0.000000000000000E+00   0.000000000000000E+00
   0.000000000000000E+00   0.000000000000000E+00   0.000000000000000E+00
   0.000000000000000E+00   0.000000000000000E+00   0.000000000000000E+00
   0.000000000000000E+00   0.000000000000000E+00   0.000000000000000E+00
   0.000000000000000E+00   0.000000000000000E+00   0.000000000000000E+00
   0.000000000000000E+00   0.000000000000000E+00   0.000000000000000E+00
   0.000000000000000E+00   0.000000000000000E+00   0.000000000000000E+00
   0.000000000000000E+00   0.000000000000000E+00   0.000000000000000E+00
   0.000000000000000E+00   0.000000000000000E+00   0.000000000000000E+00
   0.000000000000000E+00   0.000000000000000E+00   0.000000000000000E+00
   0.000000000000000E+00   0.000000000000000E+00   0.000000000000000E+00
   0.000000000000000E+00   0.000000000000000E+00   0.000000000000000E+00
   0.000000000000000E+00   0.000000000000000E+00   0.000000000000000E+00
   0.000000000000000E+00   0.000000000000000E+00   0.000000000000000E+00
   0.000000000000000E+00   0.000000000000000E+00   0.000000000000000E+00
   0.000000000000000E+00   0.000000000000000E+00   0.000000000000000E+00
   0.000000000000000E+00   0.000000000000000E+00   0.000000000000000E+00
   0.000000000000000E+00   0.000000000000000E+00   0.000000000000000E+00
   0.000000000000000E+00   0.000000000000000E+00   0.000000000000000E+00
   0.000000000000000E+00   0.000000000000000E+00   0.000000000000000E+00
   0.000000000000000E+00   0.000000000000000E+00   0.000000000000000E+00
   0.000000000000000E+00   0.000000000000000E+00   0.000000000000000E+00
   0.000000000000000E+00   0.000000000000000E+00   0.000000000000000E+00
   0.000000000000000E+00   0.000000000000000E+00   0.000000000000000E+00
   0.000000000000000E+00   0.000000000000000E+00   0.000000000000000E+00
   0.000000000000000E+00   0.000000000000000E+00   0.000000000000000E+00
   0.000000000000000E+00   0.000000000000000E+00   0.000000000000000E+00
   0.000000000000000E+00   0.000000000000000E+00   0.000000000000000E+00
   0.000000000000000E+00   0.000000000000000E+00   0.000000000000000E+00
   0.000000000000000E+00   0.000000000000000E+00   0.000000000000000E+00
   0.000000000000000E+00   0.000000000000000E+00   0.000000000000000E+00
   0.000000000000000E+00   0.000000000000000E+00   0.000000000000000E+00
   0.000000000000000E+00   0.000000000000000E+00   0.000000000000000E+00
   0.000000000000000E+00   0.000000000000000E+00   0.000000000000000E+00
   0.000000000000000E+00   0.000000000000000E+00   0.000000000000000E+00
   0.000000000000000E+00   0.000000000000000E+00   0.000000000000000E+00
   0.000000000000000E+00   0.000000000000000E+00   0.000000000000000E+00
   0.000000000000000E+00   0.000000000000000E+00   0.000000000000000E+00
   0.000000000000000E+00   0.000000000000000E+00   0.000000000000000E+00
   0.000000000000000E+00   0.000000000000000E+00   0.000000000000000E+00
   0.000000000000000E+00   0.000000000000000E+00   0.000000000000000E+00
   0.000000000000000E+00   0.000000000000000E+00   0.000000000000000E+00
   0.000000000000000E+00   0.000000000000000E+00   0.000000000000000E+00
   0.000000000000000E+00   0.000000000000000E+00   0.000000000000000E+00
   0.000000000000000E+00   0.000000000000000E+00   0.000000000000000E+00
   0.000000000000000E+00   0.000000000000000E+00   0.000000000000000E+00
   0.000000000000000E+00   0.000000000000000E+00   0.000000000000000E+00
   0.000000000000000E+00   0.000000000000000E+00   0.000000000000000E+00
   0.000000000000000E+00   0.000000000000000E+00   0.000000000000000E+00
   0.000000000000000E+00   0.000000000000000E+00   0.000000000000000E+00
   0.000000000000000E+00   0.000000000000000E+00   0.000000000000000E+00
   0.000000000000000E+00   0.000000000000000E+00   0.000000000000000E+00
   0.000000000000000E+00   0.000000000000000E+00   0.000000000000000E+00
   0.000000000000000E+00   0.000000000000000E+00   0.000000000000000E+00
   0.000000000000000E+00   0.000000000000000E+00   0.000000000000000E+00
   0.000000000000000E+00   0.000000000000000E+00   0.000000000000000E+00
   0.000000000000000E+00   0.000000000000000E+00   0.000000000000000E+00
   0.000000000000000E+00   0.000000000000000E+00   0.000000000000000E+00
   0.000000000000000E+00   0.000000000000000E+00   0.000000000000000E+00
   0.000000000000000E+00   0.000000000000000E+00   0.000000000000000E+00
   0.000000000000000E+00   0.000000000000000E+00   0.000000000000000E+00
   0.000000000000000E+00   0.000000000000000E+00   0.000000000000000E+00
   0.000000000000000E+00   0.000000000000000E+00   0.000000000000000E+00
   0.000000000000000E+00   0.000000000000000E+00   0.000000000000000E+00
   0.000000000000000E+00   0.000000000000000E+00   0.000000000000000E+00
   0.000000000000000E+00   0.000000000000000E+00   0.000000000000000E+00
   0.000000000000000E+00   0.000000000000000E+00   0.000000000000000E+00
   0.000000000000000E+00   0.000000000000000E+00   0.000000000000000E+00
   0.000000000000000E+00   0.000000000000000E+00   0.000000000000000E+00
   0.000000000000000E+00   0.000000000000000E+00   0.000000000000000E+00
   0.000000000000000E+00   0.000000000000000E+00   0.000000000000000E+00
   0.000000000000000E+00   0.000000000000000E+00   0.000000000000000E+00
   0.000000000000000E+00   0.000000000000000E+00   0.000000000000000E+00
   0.000000000000000E+00   0.000000000000000E+00   0.000000000000000E+00
   0.000000000000000E+00   0.000000000000000E+00   0.000000000000000E+00
   0.000000000000000E+00   0.000000000000000E+00   0.000000000000000E+00
   0.000000000000000E+00   0.000000000000000E+00   0.000000000000000E+00
   0.000000000000000E+00   0.000000000000000E+00   0.000000000000000E+00
   0.000000000000000E+00   0.000000000000000E+00   0.000000000000000E+00
   0.000000000000000E+00   0.000000000000000E+00   0.000000000000000E+00
   0.000000000000000E+00   0.000000000000000E+00   0.000000000000000E+00
   0.000000000000000E+00   0.000000000000000E+00   0.000000000000000E+00
   0.000000000000000E+00   0.000000000000000E+00   0.000000000000000E+00
   0.000000000000000E+00   0.000000000000000E+00   0.000000000000000E+00
   0.000000000000000E+00   0.000000000000000E+00   0.000000000000000E+00
   0.000000000000000E+00   0.000000000000000E+00   0.000000000000000E+00
   0.000000000000000E+00   0.000000000000000E+00   0.000000000000000E+00
   0.000000000000000E+00   0.000000000000000E+00   0.000000000000000E+00
   0.000000000000000E+00
      </PP_QIJL.3.3.2>
      <PP_QIJL.3.4.0 first_index="3" second_index="4" composite_index="9" angular_momentum="0" size="1129">
   4.564190553225605E-08   4.679733583827837E-08   4.798201600003807E-08
   4.919668648107040E-08   5.044210648982985E-08   5.171905445421957E-08
   5.302832850813388E-08   5.437074699031776E-08   5.574714895585430E-08
   5.715839470060183E-08   5.860536629890557E-08   6.008896815492281E-08
   6.161012756790430E-08   6.316979531178591E-08   6.476894622945325E-08
   6.640857984204884E-08   6.808972097370529E-08   6.981342039209304E-08
   7.158075546518346E-08   7.339283083463884E-08   7.525077910624789E-08
   7.715576155784082E-08   7.910896886512506E-08   8.111162184589532E-08
   8.316497222308396E-08   8.527030340712695E-08   8.742893129813672E-08
   8.964220510838140E-08   9.191150820558518E-08   9.423825897757752E-08
   9.662391171882980E-08   9.906995753943595E-08   1.015779252971034E-07
   1.041493825527371E-07   1.067859365502158E-07   1.094892352209687E-07
   1.122609682139857E-07   1.151028679519010E-07   1.180167107138117E-07
   1.210043177455089E-07   1.240675563978126E-07   1.272083412937252E-07
   1.304286355251312E-07   1.337304518797903E-07   1.371158540993952E-07
   1.405869581694716E-07   1.441459336419376E-07   1.477950049911408E-07
   1.515364530042241E-07   1.553726162066895E-07   1.593058923240483E-07
   1.633387397804752E-07   1.674736792353993E-07   1.717132951589939E-07
   1.760602374475529E-07   1.805172230797552E-07   1.850870378148616E-07
   1.897725379339011E-07   1.945766520249332E-07   1.995023828135076E-07
   2.045528090394584E-07   2.097310873812111E-07   2.150404544288048E-07
   2.204842287068585E-07   2.260658127487522E-07   2.317886952233124E-07
   2.376564531153375E-07   2.436727539613220E-07   2.498413581417771E-07
   2.561661212315853E-07   2.626509964098480E-07   2.693000369307436E-07
   2.761173986569339E-07   2.831073426571015E-07   2.902742378692487E-07
   2.976225638314110E-07   3.051569134815047E-07   3.128819960280489E-07
   3.208026398935617E-07   3.289237957324679E-07   3.372505395254028E-07
   3.457880757518518E-07   3.545417406431024E-07   3.635170055175457E-07
   3.727194802004122E-07   3.821549165300734E-07   3.918292119531113E-07
   4.017484132103912E-07   4.119187201164521E-07   4.223464894345699E-07
   4.330382388499146E-07   4.440006510432922E-07   4.552405778680119E-07
   4.667650446324876E-07   4.785812544912582E-07   4.906965929471586E-07
   5.031186324674704E-07   5.158551372169237E-07   5.289140679105182E-07
   5.423035867891949E-07   5.560320627214551E-07   5.701080764341403E-07
   5.845404258756201E-07   5.993381317147482E-07   6.145104429790322E-07
   6.300668428355168E-07   6.460170545180255E-07   6.623710474044385E-07
   6.791390432478198E-07   6.963315225652870E-07   7.139592311886048E-07
   7.320331869806136E-07   7.505646867216805E-07   7.695653131704776E-07
   7.890469423035080E-07   8.090217507378858E-07   8.295022233420358E-07
   8.505011610390488E-07   8.720316888075757E-07   8.941072638852699E-07
   9.167416841798822E-07   9.399490968932970E-07   9.637440073638691E-07
   9.881412881326104E-07   1.013156188238884E-06   1.038804342751401E-06
   1.065101782540516E-06   1.092064944297876E-06   1.119710680809738E-06
   1.148056271490338E-06   1.177119433181903E-06   1.206918331228076E-06
   1.237471590827643E-06   1.268798308675688E-06   1.300918064899433E-06
   1.333850935296223E-06   1.367617503881312E-06   1.402238875753293E-06
   1.437736690285206E-06   1.474133134649578E-06   1.511450957685825E-06
   1.549713484118713E-06   1.588944629136751E-06   1.629168913339614E-06
   1.670411478063973E-06   1.712698101097252E-06   1.756055212789205E-06
   1.800509912571325E-06   1.846089985894427E-06   1.892823921595019E-06
   1.940740929701245E-06   1.989870959689613E-06   2.040244719203852E-06
   2.091893693247626E-06   2.144850163863113E-06   2.199147230307688E-06
   2.254818829741397E-06   2.311899758438106E-06   2.370425693533572E-06
   2.430433215324079E-06   2.491959830129485E-06   2.555043993735088E-06
   2.619725135426844E-06   2.686043682635033E-06   2.754041086201767E-06
   2.823759846288046E-06   2.895243538936726E-06   2.968536843307796E-06
   3.043685569603117E-06   3.120736687698088E-06   3.199738356497956E-06
   3.280739954037406E-06   3.363792108341923E-06   3.448946729070463E-06
   3.536257039959087E-06   3.625777612085785E-06   3.717564397977499E-06
   3.811674766580321E-06   3.908167539115038E-06   4.007103025840272E-06
   4.108543063746113E-06   4.212551055202085E-06   4.319192007583201E-06
   4.428532573899227E-06   4.540641094452352E-06   4.655587639549244E-06
   4.773444053294468E-06   4.894283998492225E-06   5.018183002684810E-06
   5.145218505356420E-06   5.275469906331693E-06   5.409018615399566E-06
   5.545948103192984E-06   5.686343953356660E-06   5.830293916035333E-06
   5.977887962715761E-06   6.129218342457161E-06   6.284379639544695E-06
   6.443468832602448E-06   6.606585355202680E-06   6.773831158009032E-06
   6.945310772492992E-06   7.121131376262833E-06   7.301402860046329E-06
   7.486237896368898E-06   7.675752009969907E-06   7.870063650001633E-06
   8.069294264055356E-06   8.273568374061327E-06   8.483013654109869E-06
   8.697761010241970E-06   8.917944662259849E-06   9.143702227607811E-06
   9.375174807376415E-06   9.612507074483485E-06   9.855847364086757E-06
   1.010534776628530E-05   1.036116422116689E-05   1.062345661626118E-05
   1.089238888645951E-05   1.116812911646333E-05   1.145084964582612E-05
   1.174072717665330E-05   1.203794288402828E-05   1.234268252923340E-05
   1.265513657583596E-05   1.297550030871293E-05   1.330397395608735E-05
   1.364076281465379E-05   1.398607737787044E-05   1.434013346749781E-05
   1.470315236846692E-05   1.507536096716022E-05   1.545699189319242E-05
   1.584828366477952E-05   1.624948083778625E-05   1.666083415854631E-05
   1.708260072054925E-05   1.751504412509309E-05   1.795843464600243E-05
   1.841304939851465E-05   1.887917251244069E-05   1.935709530970702E-05
   1.984711648639105E-05   2.034954229936276E-05   2.086468675764938E-05
   2.139287181864269E-05   2.193442758927106E-05   2.248969253226226E-05
   2.305901367762561E-05   2.364274683948521E-05   2.424125683840019E-05
   2.485491772931013E-05   2.548411303524835E-05   2.612923598696888E-05
   2.679068976863631E-05   2.746888776973246E-05   2.816425384333646E-05
   2.887722257093987E-05   2.960823953396201E-05   3.035776159213446E-05
   3.112625716892941E-05   3.191420654420868E-05   3.272210215427727E-05
   3.355044889952769E-05   3.439976445986747E-05   3.527057961812658E-05
   3.616343859164617E-05   3.707889937225600E-05   3.801753407485233E-05
   3.897992929479335E-05   3.996668647433591E-05   4.097842227834102E-05
   4.201576897948333E-05   4.307937485320421E-05   4.416990458265487E-05
   4.528803967388225E-05   4.643447888151594E-05   4.760993864522195E-05
   4.881515353719573E-05   5.005087672097216E-05   5.131788042184017E-05
   5.261695640915339E-05   5.394891649083895E-05   5.531459302041178E-05
   5.671483941680992E-05   5.815053069737636E-05   5.962256402431708E-05
   6.113185926497789E-05   6.267935956628816E-05   6.426603194372839E-05
   6.589286788519047E-05   6.756088397010425E-05   6.927112250421808E-05
   7.102465217042730E-05   7.282256869605578E-05   7.466599553700703E-05
   7.655608457920904E-05   7.849401685779101E-05   8.048100329443866E-05
   8.251828545338663E-05   8.460713631651932E-05   8.674886107806123E-05
   8.894479795935185E-05   9.119631904421200E-05   9.350483113541951E-05
   9.587177663282942E-05   9.829863443368179E-05   1.007869208556590E-04
   1.033381905832650E-04   1.059540376381144E-04   1.086360963737359E-04
   1.113860424955057E-04   1.142055941063465E-04   1.170965127788403E-04
   1.200606046544211E-04   1.230997215703301E-04   1.262157622150322E-04
   1.294106733128113E-04   1.326864508382814E-04   1.360451412615617E-04
   1.394888428248946E-04   1.430197068514934E-04   1.466399390874333E-04
   1.503518010774171E-04   1.541576115752700E-04   1.580597479900318E-04
   1.620606478685509E-04   1.661628104154915E-04   1.703687980516970E-04
   1.746812380118780E-04   1.791028239826058E-04   1.836363177816338E-04
   1.882845510795805E-04   1.930504271650383E-04   1.979369227542044E-04
   2.029470898461443E-04   2.080840576248438E-04   2.133510344092162E-04
   2.187513096522737E-04   2.242882559906973E-04   2.299653313460655E-04
   2.357860810790442E-04   2.417541401978623E-04   2.478732356224370E-04
   2.541471885055439E-04   2.605799166124582E-04   2.671754367605396E-04
   2.739378673202574E-04   2.808714307791962E-04   2.879804563706236E-04
   2.952693827682260E-04   3.027427608486828E-04   3.104052565237640E-04
   3.182616536436986E-04   3.263168569735943E-04   3.345758952447277E-04
   3.430439242825890E-04   3.517262302135887E-04   3.606282327523940E-04
   3.697554885719116E-04   3.791136947579697E-04   3.887086923508250E-04
   3.985464699756513E-04   4.086331675642300E-04   4.189750801701189E-04
   4.295786618796186E-04   4.404505298209348E-04   4.515974682739684E-04
   4.630264328832448E-04   4.747445549765451E-04   4.867591459918597E-04
   4.990777020153688E-04   5.117079084331935E-04   5.246576446997488E-04
   5.379349892255926E-04   5.515482243877199E-04   5.655058416653539E-04
   5.798165469043337E-04   5.944892657132759E-04   6.095331489947851E-04
   6.249575786150304E-04   6.407721732151280E-04   6.569867941678187E-04
   6.736115516830278E-04   6.906568110659764E-04   7.081331991316173E-04
   7.260516107792121E-04   7.444232157310323E-04   7.632594654391863E-04
   7.825721001647184E-04   8.023731562332082E-04   8.226749734711877E-04
   8.434902028278291E-04   8.648318141864184E-04   8.867131043702743E-04
   9.091477053478582E-04   9.321495926419340E-04   9.557330939477693E-04
   9.799128979654664E-04   1.004704063451631E-03   1.030122028495736E-03
   1.056182620026597E-03   1.082902063554598E-03   1.110296993155345E-03
   1.138384461700605E-03   1.167181951342524E-03   1.196707384257209E-03
   1.226979133653976E-03   1.258016035056638E-03   1.289837397863371E-03
   1.322463017191897E-03   1.355913186016762E-03   1.390208707605778E-03
   1.425370908262742E-03   1.461421650383763E-03   1.498383345834692E-03
   1.536278969657256E-03   1.575132074111771E-03   1.614966803064377E-03
   1.655807906726975E-03   1.697680756758212E-03   1.740611361734005E-03
   1.784626382996347E-03   1.829753150889276E-03   1.876019681391066E-03
   1.923454693151969E-03   1.972087624946903E-03   2.021948653552844E-03
   2.073068712060738E-03   2.125479508632027E-03   2.179213545710101E-03
   2.234304139697124E-03   2.290785441107009E-03   2.348692455205429E-03
   2.408061063148022E-03   2.468928043628196E-03   2.531331095046051E-03
   2.595308858210348E-03   2.660900939585485E-03   2.728147935095834E-03
   2.797091454499920E-03   2.867774146347188E-03   2.940239723530411E-03
   3.014532989446911E-03   3.090699864782097E-03   3.168787414929052E-03
   3.248843878058075E-03   3.330918693850465E-03   3.415062532910941E-03
   3.501327326873403E-03   3.589766299215037E-03   3.680433996793837E-03
   3.773386322125121E-03   3.868680566412620E-03   3.966375443350104E-03
   4.066531123709756E-03   4.169209270733562E-03   4.274473076344565E-03
   4.382387298194690E-03   4.493018297566349E-03   4.606434078145157E-03
   4.722704325681247E-03   4.841900448557095E-03   4.964095619279741E-03
   5.089364816915644E-03   5.217784870486612E-03   5.349434503345268E-03
   5.484394378549000E-03   5.622747145251175E-03   5.764577486128819E-03
   5.909972165866001E-03   6.059020080712188E-03   6.211812309135299E-03
   6.368442163588861E-03   6.529005243413094E-03   6.693599488889692E-03
   6.862325236470003E-03   7.035285275196673E-03   7.212584904338457E-03
   7.394331992258119E-03   7.580637036533257E-03   7.771613225349680E-03
   7.967376500187150E-03   8.168045619816889E-03   8.373742225630181E-03
   8.584590908317410E-03   8.800719275916059E-03   9.022258023246753E-03
   9.249341002755283E-03   9.482105296778712E-03   9.720691291253065E-03
   9.965242750879448E-03   1.021590689576530E-02   1.047283447955655E-02
   1.073617986907589E-02   1.100610112548179E-02   1.128276008696169E-02
   1.156632245297245E-02   1.185695787003986E-02   1.215484001912782E-02
   1.246014670458721E-02   1.277305994469251E-02   1.309376606377355E-02
   1.342245578594792E-02   1.375932433045823E-02   1.410457150861650E-02
   1.445840182235637E-02   1.482102456439180E-02   1.519265391997891E-02
   1.557350907027508E-02   1.596381429728766E-02   1.636379909040111E-02
   1.677369825446992E-02   1.719375201946049E-02   1.762420615162283E-02
   1.806531206616967E-02   1.851732694143597E-02   1.898051383448975E-02
   1.945514179815973E-02   1.994148599944168E-02   2.043982783924081E-02
   2.095045507340236E-02   2.147366193497823E-02   2.200974925767139E-02
   2.255902460039424E-02   2.312180237287163E-02   2.369840396221167E-02
   2.428915786036216E-02   2.489439979236224E-02   2.551447284529153E-02
   2.614972759781154E-02   2.680052225018489E-02   2.746722275464980E-02
   2.815020294601743E-02   2.884984467234991E-02   2.956653792556661E-02
   3.030068097181463E-02   3.105268048142924E-02   3.182295165829611E-02
   3.261191836841612E-02   3.342001326745862E-02   3.424767792707561E-02
   3.509536295973477E-02   3.596352814181284E-02   3.685264253467482E-02
   3.776318460344807E-02   3.869564233318021E-02   3.965051334205378E-02
   4.062830499130833E-02   4.162953449150078E-02   4.265472900471378E-02
   4.370442574229731E-02   4.477917205770714E-02   4.587952553397696E-02
   4.700605406533617E-02   4.815933593245757E-02   4.933995987079026E-02
   5.054852513140506E-02   5.178564153374699E-02   5.305192950965761E-02
   5.434802013799751E-02   5.567455516916146E-02   5.703218703874564E-02
   5.842157886958568E-02   5.984340446134522E-02   6.129834826679531E-02
   6.278710535387855E-02   6.431038135261245E-02   6.586889238583556E-02
   6.746336498275540E-02   6.909453597420678E-02   7.076315236847636E-02
   7.246997120649927E-02   7.421575939517598E-02   7.600129351750165E-02
   7.782735961814351E-02   7.969475296303680E-02   8.160427777151417E-02
   8.355674691941310E-02   8.555298161154344E-02   8.759381102182970E-02
   8.968007189936934E-02   9.181260813858345E-02   9.399227031155699E-02
   9.621991516059493E-02   9.849640504894432E-02   1.008226073675511E-01
   1.031993938956482E-01   1.056276401128846E-01   1.081082244606277E-01
   1.106420275499881E-01   1.132299313140319E-01   1.158728181015650E-01
   1.185715697097864E-01   1.213270663530260E-01   1.241401855646986E-01
   1.270118010295211E-01   1.299427813429597E-01   1.329339886947915E-01
   1.359862774735870E-01   1.391004927888410E-01   1.422774689074066E-01
   1.455180276008166E-01   1.488229764000070E-01   1.521931067538971E-01
   1.556291920882227E-01   1.591319857609648E-01   1.627022189106782E-01
   1.663405981939815E-01   1.700478034084456E-01   1.738244849971007E-01
   1.776712614307712E-01   1.815887164644596E-01   1.855773962640153E-01
   1.896378063993598E-01   1.937704087005920E-01   1.979756179733634E-01
   2.022537985700088E-01   2.066052608130200E-01   2.110302572675931E-01
   2.155289788601365E-01   2.201015508398125E-01   2.247480285804138E-01
   2.294683932201170E-01   2.342625471369479E-01   2.391303092581216E-01
   2.440714102017747E-01   2.490854872500333E-01   2.541720791528022E-01
   2.593306207621752E-01   2.645604374979287E-01   2.698607396451676E-01
   2.752306164858845E-01   2.806690302669236E-01   2.861748100076573E-01
   2.917466451515615E-01   2.973830790668334E-01   3.030825024022382E-01
   3.088431463054832E-01   3.146630755126309E-01   3.205401813183689E-01
   3.264721744383304E-01   3.324565777761878E-01   3.384907191098014E-01
   3.445717237124377E-01   3.506965069268867E-01   3.568617667122078E-01
   3.630639761849222E-01   3.692993761785867E-01   3.755639678479948E-01
   3.818535053466542E-01   3.881634886086838E-01   3.944891562689666E-01
   4.008254787581149E-01   4.071671516117166E-01   4.135085890363360E-01
   4.198439177778139E-01   4.261669713406896E-01   4.324712846108137E-01
   4.387500889366729E-01   4.449963077284151E-01   4.512025526370771E-01
   4.573611203801713E-01   4.634639902833504E-01   4.695028226115529E-01
   4.754689577666458E-01   4.813534164321532E-01   4.871469007492203E-01
   4.928397966113434E-01   4.984221771687125E-01   5.038838076361247E-01
   5.092141515012848E-01   5.144023782329770E-01   5.194373725908417E-01
   5.243077456404366E-01   5.290018475787298E-01   5.335077824761095E-01
   5.378134250414147E-01   5.419064395161656E-01   5.457743008031748E-01
   5.494043179328710E-01   5.527836599678682E-01   5.558993844425626E-01
   5.587384684296158E-01   5.612878423190799E-01   5.635344263884866E-01
   5.654651702333580E-01   5.670670951172057E-01   5.683273392880352E-01
   5.692332062945962E-01   5.697722163199576E-01   5.699321605323856E-01
   5.697011584338456E-01   5.690677181646372E-01   5.680207996986466E-01
   5.665498808373838E-01   5.646450258822949E-01   5.622969568337972E-01
   5.594971269320120E-01   5.562377963183177E-01   5.525121095585883E-01
   5.483141747284284E-01   5.436391437178836E-01   5.384832933681847E-01
   5.328441070061603E-01   5.267203558932297E-01   5.201121800556744E-01
   5.130211679112686E-01   5.054504340548849E-01   4.974046945125004E-01
   4.888903387196555E-01   4.799154974272959E-01   4.704901056853940E-01
   4.606259600035497E-01   4.503367687381956E-01   4.396381947088295E-01
   4.285478890014018E-01   4.170855148760702E-01   4.052727606597900E-01
   3.931333404719793E-01   3.806929816043998E-01   3.679793973550096E-01
   3.550222440999606E-01   3.418530613788737E-01   3.285051937658346E-01
   3.150136933025466E-01   3.014152012807023E-01   2.877478081774457E-01
   2.740508905708229E-01   2.603649238904411E-01   2.467312698917134E-01
   2.331919377792802E-01   2.197893179452290E-01   2.065658873299888E-01
   1.935638854568399E-01   1.808249602341757E-01   1.683897826621923E-01
   1.562976296219581E-01   1.445859339652530E-01   1.332898011636302E-01
   1.224414918167958E-01   1.120698693666274E-01   1.021998124183441E-01
   9.285159114122092E-02   8.404020731640051E-02   7.577469773040785E-02
   6.805740079462970E-02   6.088318652141005E-02   5.423865032900189E-02
   4.810127160681744E-02   4.243853858068573E-02   3.721470430411433E-02
   3.241618784930467E-02   2.803395628629624E-02   2.405673247623308E-02
   2.047110504515726E-02   1.726166464540480E-02   1.441116596810768E-02
   1.190071450078198E-02   9.709976531485781E-03   7.817410389974744E-03
   6.200516477224777E-03   4.836102604320824E-03   3.700562974544241E-03
   2.770162139865584E-03   2.021323298818128E-03   1.430919408235420E-03
   9.765600431865806E-04   6.368641034603939E-04   3.917171627693117E-04
   2.225077862732239E-04   1.123377412455828E-04   4.620131138828587E-05
   1.112912612985517E-05  -3.707745250852712E-06  -6.937327940784166E-06
  -4.973436736624426E-06  -2.052734014226787E-06  -3.250876134397451E-07
  -1.387778780781446E-17   0.000000000000000E+00   0.000000000000000E+00
   0.000000000000000E+00   0.000000000000000E+00   0.000000000000000E+00
   0.000000000000000E+00   0.000000000000000E+00   0.000000000000000E+00
   0.000000000000000E+00   0.000000000000000E+00   0.000000000000000E+00
   0.000000000000000E+00   0.000000000000000E+00   0.000000000000000E+00
   0.000000000000000E+00   0.000000000000000E+00   0.000000000000000E+00
   0.000000000000000E+00   0.000000000000000E+00   0.000000000000000E+00
   0.000000000000000E+00   0.000000000000000E+00   0.000000000000000E+00
   0.000000000000000E+00   0.000000000000000E+00   0.000000000000000E+00
   0.000000000000000E+00   0.000000000000000E+00   0.000000000000000E+00
   0.000000000000000E+00   0.000000000000000E+00   0.000000000000000E+00
   0.000000000000000E+00   0.000000000000000E+00   0.000000000000000E+00
   0.000000000000000E+00   0.000000000000000E+00   0.000000000000000E+00
   0.000000000000000E+00   0.000000000000000E+00   0.000000000000000E+00
   0.000000000000000E+00   0.000000000000000E+00   0.000000000000000E+00
   0.000000000000000E+00   0.000000000000000E+00   0.000000000000000E+00
   0.000000000000000E+00   0.000000000000000E+00   0.000000000000000E+00
   0.000000000000000E+00   0.000000000000000E+00   0.000000000000000E+00
   0.000000000000000E+00   0.000000000000000E+00   0.000000000000000E+00
   0.000000000000000E+00   0.000000000000000E+00   0.000000000000000E+00
   0.000000000000000E+00   0.000000000000000E+00   0.000000000000000E+00
   0.000000000000000E+00   0.000000000000000E+00   0.000000000000000E+00
   0.000000000000000E+00   0.000000000000000E+00   0.000000000000000E+00
   0.000000000000000E+00   0.000000000000000E+00   0.000000000000000E+00
   0.000000000000000E+00   0.000000000000000E+00   0.000000000000000E+00
   0.000000000000000E+00   0.000000000000000E+00   0.000000000000000E+00
   0.000000000000000E+00   0.000000000000000E+00   0.000000000000000E+00
   0.000000000000000E+00   0.000000000000000E+00   0.000000000000000E+00
   0.000000000000000E+00   0.000000000000000E+00   0.000000000000000E+00
   0.000000000000000E+00   0.000000000000000E+00   0.000000000000000E+00
   0.000000000000000E+00   0.000000000000000E+00   0.000000000000000E+00
   0.000000000000000E+00   0.000000000000000E+00   0.000000000000000E+00
   0.000000000000000E+00   0.000000000000000E+00   0.000000000000000E+00
   0.000000000000000E+00   0.000000000000000E+00   0.000000000000000E+00
   0.000000000000000E+00   0.000000000000000E+00   0.000000000000000E+00
   0.000000000000000E+00   0.000000000000000E+00   0.000000000000000E+00
   0.000000000000000E+00   0.000000000000000E+00   0.000000000000000E+00
   0.000000000000000E+00   0.000000000000000E+00   0.000000000000000E+00
   0.000000000000000E+00   0.000000000000000E+00   0.000000000000000E+00
   0.000000000000000E+00   0.000000000000000E+00   0.000000000000000E+00
   0.000000000000000E+00   0.000000000000000E+00   0.000000000000000E+00
   0.000000000000000E+00   0.000000000000000E+00   0.000000000000000E+00
   0.000000000000000E+00   0.000000000000000E+00   0.000000000000000E+00
   0.000000000000000E+00   0.000000000000000E+00   0.000000000000000E+00
   0.000000000000000E+00   0.000000000000000E+00   0.000000000000000E+00
   0.000000000000000E+00   0.000000000000000E+00   0.000000000000000E+00
   0.000000000000000E+00   0.000000000000000E+00   0.000000000000000E+00
   0.000000000000000E+00   0.000000000000000E+00   0.000000000000000E+00
   0.000000000000000E+00   0.000000000000000E+00   0.000000000000000E+00
   0.000000000000000E+00   0.000000000000000E+00   0.000000000000000E+00
   0.000000000000000E+00   0.000000000000000E+00   0.000000000000000E+00
   0.000000000000000E+00   0.000000000000000E+00   0.000000000000000E+00
   0.000000000000000E+00   0.000000000000000E+00   0.000000000000000E+00
   0.000000000000000E+00   0.000000000000000E+00   0.000000000000000E+00
   0.000000000000000E+00   0.000000000000000E+00   0.000000000000000E+00
   0.000000000000000E+00   0.000000000000000E+00   0.000000000000000E+00
   0.000000000000000E+00   0.000000000000000E+00   0.000000000000000E+00
   0.000000000000000E+00   0.000000000000000E+00   0.000000000000000E+00
   0.000000000000000E+00   0.000000000000000E+00   0.000000000000000E+00
   0.000000000000000E+00   0.000000000000000E+00   0.000000000000000E+00
   0.000000000000000E+00   0.000000000000000E+00   0.000000000000000E+00
   0.000000000000000E+00   0.000000000000000E+00   0.000000000000000E+00
   0.000000000000000E+00   0.000000000000000E+00   0.000000000000000E+00
   0.000000000000000E+00   0.000000000000000E+00   0.000000000000000E+00
   0.000000000000000E+00   0.000000000000000E+00   0.000000000000000E+00
   0.000000000000000E+00   0.000000000000000E+00   0.000000000000000E+00
   0.000000000000000E+00   0.000000000000000E+00   0.000000000000000E+00
   0.000000000000000E+00   0.000000000000000E+00   0.000000000000000E+00
   0.000000000000000E+00   0.000000000000000E+00   0.000000000000000E+00
   0.000000000000000E+00   0.000000000000000E+00   0.000000000000000E+00
   0.000000000000000E+00   0.000000000000000E+00   0.000000000000000E+00
   0.000000000000000E+00   0.000000000000000E+00   0.000000000000000E+00
   0.000000000000000E+00   0.000000000000000E+00   0.000000000000000E+00
   0.000000000000000E+00   0.000000000000000E+00   0.000000000000000E+00
   0.000000000000000E+00   0.000000000000000E+00   0.000000000000000E+00
   0.000000000000000E+00   0.000000000000000E+00   0.000000000000000E+00
   0.000000000000000E+00   0.000000000000000E+00   0.000000000000000E+00
   0.000000000000000E+00   0.000000000000000E+00   0.000000000000000E+00
   0.000000000000000E+00   0.000000000000000E+00   0.000000000000000E+00
   0.000000000000000E+00   0.000000000000000E+00   0.000000000000000E+00
   0.000000000000000E+00   0.000000000000000E+00   0.000000000000000E+00
   0.000000000000000E+00   0.000000000000000E+00   0.000000000000000E+00
   0.000000000000000E+00   0.000000000000000E+00   0.000000000000000E+00
   0.000000000000000E+00   0.000000000000000E+00   0.000000000000000E+00
   0.000000000000000E+00   0.000000000000000E+00   0.000000000000000E+00
   0.000000000000000E+00   0.000000000000000E+00   0.000000000000000E+00
   0.000000000000000E+00   0.000000000000000E+00   0.000000000000000E+00
   0.000000000000000E+00   0.000000000000000E+00   0.000000000000000E+00
   0.000000000000000E+00   0.000000000000000E+00   0.000000000000000E+00
   0.000000000000000E+00   0.000000000000000E+00   0.000000000000000E+00
   0.000000000000000E+00   0.000000000000000E+00   0.000000000000000E+00
   0.000000000000000E+00   0.000000000000000E+00   0.000000000000000E+00
   0.000000000000000E+00   0.000000000000000E+00   0.000000000000000E+00
   0.000000000000000E+00   0.000000000000000E+00   0.000000000000000E+00
   0.000000000000000E+00   0.000000000000000E+00   0.000000000000000E+00
   0.000000000000000E+00   0.000000000000000E+00   0.000000000000000E+00
   0.000000000000000E+00   0.000000000000000E+00   0.000000000000000E+00
   0.000000000000000E+00   0.000000000000000E+00   0.000000000000000E+00
   0.000000000000000E+00   0.000000000000000E+00   0.000000000000000E+00
   0.000000000000000E+00   0.000000000000000E+00   0.000000000000000E+00
   0.000000000000000E+00   0.000000000000000E+00   0.000000000000000E+00
   0.000000000000000E+00   0.000000000000000E+00   0.000000000000000E+00
   0.000000000000000E+00   0.000000000000000E+00   0.000000000000000E+00
   0.000000000000000E+00   0.000000000000000E+00   0.000000000000000E+00
   0.000000000000000E+00   0.000000000000000E+00   0.000000000000000E+00
   0.000000000000000E+00   0.000000000000000E+00   0.000000000000000E+00
   0.000000000000000E+00   0.000000000000000E+00   0.000000000000000E+00
   0.000000000000000E+00   0.000000000000000E+00   0.000000000000000E+00
   0.000000000000000E+00   0.000000000000000E+00   0.000000000000000E+00
   0.000000000000000E+00   0.000000000000000E+00   0.000000000000000E+00
   0.000000000000000E+00   0.000000000000000E+00   0.000000000000000E+00
   0.000000000000000E+00   0.000000000000000E+00   0.000000000000000E+00
   0.000000000000000E+00   0.000000000000000E+00   0.000000000000000E+00
   0.000000000000000E+00   0.000000000000000E+00   0.000000000000000E+00
   0.000000000000000E+00   0.000000000000000E+00   0.000000000000000E+00
   0.000000000000000E+00   0.000000000000000E+00   0.000000000000000E+00
   0.000000000000000E+00
      </PP_QIJL.3.4.0>
      <PP_QIJL.3.4.2 first_index="3" second_index="4" composite_index="9" angular_momentum="2" size="1129">
   1.976133263826217E-15   2.077451780680979E-15   2.183965008809323E-15
   2.295939286740452E-15   2.413654608470965E-15   2.537405323595526E-15
   2.667500873334040E-15   2.804266564295759E-15   2.948044381915036E-15
   3.099193845592942E-15   3.258092907682773E-15   3.425138898567633E-15
   3.600749520193125E-15   3.785363890539537E-15   3.979443641645327E-15
   4.183474073927298E-15   4.397965369684198E-15   4.623453868817868E-15
   4.860503409962002E-15   5.109706740372122E-15   5.371686998101973E-15
   5.647099270172846E-15   5.936632230631895E-15   6.241009862595450E-15
   6.560993268583432E-15   6.897382573671413E-15   7.251018926219518E-15
   7.622786601180764E-15   8.013615211248293E-15   8.424482031370619E-15
   8.856414442447067E-15   9.310492500314336E-15   9.787851636447659E-15
   1.028968549712982E-14   1.081724892818757E-14   1.137186111275848E-14
   1.195490886993457E-14   1.256785012253108E-14   1.321221754265123E-14
   1.388962238416339E-14   1.460175851167291E-14   1.535040663606421E-14
   1.613743876720338E-14   1.696482289493562E-14   1.783462791008282E-14
   1.874902877774521E-14   1.971031197584444E-14   2.072088121250633E-14
   2.178326343657987E-14   2.290011515632226E-14   2.407422908204915E-14
   2.530854110936129E-14   2.660613766040823E-14   2.797026340154646E-14
   2.940432935669083E-14   3.091192143664478E-14   3.249680940573969E-14
   3.416295630820279E-14   3.591452837782494E-14   3.775590545570825E-14
   3.969169194214147E-14   4.172672830999086E-14   4.386610320839415E-14
   4.611516618702383E-14   4.847954107273753E-14   5.096514003206191E-14
   5.357817835467652E-14   5.632518999486168E-14   5.921304390977269E-14
   6.224896123539577E-14   6.544053334313101E-14   6.879574082215776E-14
   7.232297343504433E-14   7.603105109650296E-14   7.992924592774896E-14
   8.402730544160693E-14   8.833547691634454E-14   9.286453301917684E-14
   9.762579874351437E-14   1.026311797273133E-13   1.078931920233337E-13
   1.134249933957542E-13   1.192404162213924E-13   1.253540020778082E-13
   1.317810381047735E-13   1.385375952300307E-13   1.456405683549283E-13
   1.531077186004121E-13   1.609577177190145E-13   1.692101947838918E-13
   1.778857852716528E-13   1.870061826617182E-13   1.965941926812310E-13
   2.066737903311564E-13   2.172701798361725E-13   2.284098576682455E-13
   2.401206788014944E-13   2.524319263640059E-13   2.653743848607678E-13
   2.789804171508217E-13   2.932840453710987E-13   3.083210360093155E-13
   3.241289893386345E-13   3.407474334377278E-13   3.582179230313537E-13
   3.765841433985673E-13   3.958920196084294E-13   4.161898313563232E-13
   4.375283336880477E-13   4.599608839135589E-13   4.835435750276860E-13
   5.083353759714746E-13   5.343982790848583E-13   5.617974551193685E-13
   5.906014161985070E-13   6.208821871332339E-13   6.527154855209819E-13
   6.861809110785135E-13   7.213621446820493E-13   7.583471576123851E-13
   7.972284315281807E-13   8.381031897175105E-13   8.810736402058795E-13
   9.262472313286236E-13   9.737369204067465E-13   1.023661456197996E-12
   1.076145675829487E-12   1.131320816954323E-12   1.189324845912767E-12
   1.250302802718556E-12   1.314407163732923E-12   1.381798222933303E-12
   1.452644492729975E-12   1.527123125332952E-12   1.605420355722737E-12
   1.687731967332526E-12   1.774263781606384E-12   1.865232172657485E-12
   1.960864608313301E-12   2.061400218900679E-12   2.167090395192942E-12
   2.278199417014300E-12   2.395005114073308E-12   2.517799560677783E-12
   2.646889806068381E-12   2.782598642196871E-12   2.925265410869108E-12
   3.075246852270831E-12   3.232917996998023E-12   3.398673103822447E-12
   3.572926645537012E-12   3.756114345346319E-12   3.948694266393631E-12
   4.151147957148762E-12   4.363981655520874E-12   4.587727554706889E-12
   4.822945133940987E-12   5.070222557472548E-12   5.330178145270604E-12
   5.603461919132470E-12   5.890757228062178E-12   6.192782456983417E-12
   6.510292823059117E-12   6.844082264109560E-12   7.194985423851034E-12
   7.563879738918484E-12   7.951687632891747E-12   8.359378822810169E-12
   8.787972743943979E-12   9.238541098885120E-12   9.712210537330900E-12
   1.021016547326243E-11   1.073365104656050E-11   1.128397623646549E-11
   1.186251713466605E-11   1.247072038619993E-11   1.311010680677259E-11
   1.378227518553621E-11   1.448890628283956E-11   1.523176703294428E-11
   1.601271496221532E-11   1.683370283383507E-11   1.769678353065233E-11
   1.860411518837762E-11   1.955796659195902E-11   2.056072284863104E-11
   2.161489135182410E-11   2.272310805084348E-11   2.388814404199744E-11
   2.511291249765406E-11   2.640047595055105E-11   2.775405395157573E-11
   2.917703112015833E-11   3.067296560741159E-11   3.224559799317669E-11
   3.389886063921972E-11   3.563688752197020E-11   3.746402456938154E-11
   3.938484052776439E-11   4.140413838576257E-11   4.352696738403340E-11
   4.575863564066767E-11   4.810472342390944E-11   5.057109710536931E-11
   5.316392382861643E-11   5.588968692982411E-11   5.875520214903282E-11
   6.176763467255623E-11   6.493451704914887E-11   6.826376802473062E-11
   7.176371234275675E-11   7.544310155975163E-11   7.931113592803926E-11
   8.337748740039492E-11   8.765232381413389E-11   9.214633431510032E-11
   9.687075608513700E-11   1.018374024398469E-10   1.070586923669135E-10
   1.125476815788287E-10   1.183180951576650E-10   1.243843618735286E-10
   1.307616502624780E-10   1.374659065541331E-10   1.445138945437942E-10
   1.519232375087575E-10   1.597124622736479E-10   1.679010455349180E-10
   1.765094625603571E-10   1.855592383853654E-10   1.950730016339829E-10
   2.050745410992666E-10   2.155888652244468E-10   2.266422646336017E-10
   2.382623778681857E-10   2.504782604937490E-10   2.633204577496629E-10
   2.768210809234480E-10   2.910138876406865E-10   3.059343662712459E-10
   3.216198246628266E-10   3.381094834237235E-10   3.554445739879649E-10
   3.736684417080543E-10   3.928266542330315E-10   4.129671154428137E-10
   4.341401852236786E-10   4.563988053843145E-10   4.797986320272604E-10
   5.043981747066657E-10   5.302589427202582E-10   5.574455989012865E-10
   5.860261212948863E-10   6.160719731230947E-10   6.476582814634119E-10
   6.808640250876014E-10   7.157722319303401E-10   7.524701866813577E-10
   7.910496490200623E-10   8.316070830382125E-10   8.742438984241635E-10
   9.190667040116604E-10   9.661875743269779E-10   1.015724329800784E-09
   1.067800831345196E-09   1.122547290032420E-09   1.180100592649147E-09
   1.240604643940485E-09   1.304210726399009E-09   1.371077878498304E-09
   1.441373292316468E-09   1.515272731543579E-09   1.592960970917972E-09
   1.674632258189823E-09   1.760490799766782E-09   1.850751271255587E-09
   1.945639354175875E-09   2.045392300187678E-09   2.150259524243016E-09
   2.260503228144212E-09   2.376399056067423E-09   2.498236783690040E-09
   2.626321042644278E-09   2.760972082107781E-09   2.902526569434793E-09
   3.051338431828892E-09   3.207779741161136E-09   3.372241644144855E-09
   3.545135340192094E-09   3.726893109395590E-09   3.917969393205353E-09
   4.118841930500950E-09   4.330012951898487E-09   4.552010435277270E-09
   4.785389425663766E-09   5.030733422771313E-09   5.288655839663290E-09
   5.559801536184746E-09   5.844848430994699E-09   6.144509196227396E-09
   6.459533039017222E-09   6.790707574339276E-09   7.138860793845185E-09
   7.504863135614138E-09   7.889629659990707E-09   8.294122336946114E-09
   8.719352450678514E-09   9.166383127460048E-09   9.636331993046863E-09
   1.013037396629153E-08   1.064974419593735E-08   1.119574114793220E-08
   1.176972985097457E-08   1.237314530840036E-08   1.300749608493415E-08
   1.367436807726477E-08   1.437542847704979E-08   1.511242993943953E-08
   1.588721496940408E-08   1.670172050167303E-08   1.755798278298064E-08
   1.845814242107219E-08   1.940444976557684E-08   2.039927050455018E-08
   2.144509159426009E-08   2.254452748776233E-08   2.370032663731765E-08
   2.491537836290796E-08   2.619272011688879E-08   2.753554503187360E-08
   2.894720990428889E-08   3.043124360521514E-08   3.199135587496027E-08
   3.363144662007306E-08   3.535561562593041E-08   3.716817281421091E-08
   3.907364902739606E-08   4.107680731888073E-08   4.318265490320759E-08
   4.539645560792224E-08   4.772374306889875E-08   5.017033449961173E-08
   5.274234535141003E-08   5.544620444707495E-08   5.828867005001294E-08
   6.127684693527561E-08   6.441820388251857E-08   6.772059249197868E-08
   7.119226679663341E-08   7.484190375897384E-08   7.867862517193221E-08
   8.271202013332663E-08   8.695216925920906E-08   9.140966982309411E-08
   9.609566201240150E-08   1.010218571203551E-07   1.062005663785679E-07
   1.116447320811273E-07   1.173679596271755E-07   1.233845516398319E-07
   1.297095437161421E-07   1.363587417499613E-07   1.433487617519513E-07
   1.506970710210526E-07   1.584220318637852E-07   1.665429474957178E-07
   1.750801103495225E-07   1.840548522156456E-07   1.934895982677317E-07
   2.034079223444615E-07   2.138346062556949E-07   2.247957014619438E-07
   2.363185940038848E-07   2.484320731477395E-07   2.611664029829209E-07
   2.745533979496563E-07   2.886265023943705E-07   3.034208738990713E-07
   3.189734712122829E-07   3.353231460566985E-07   3.525107406399015E-07
   3.705791889097328E-07   3.895736242988698E-07   4.095414917115115E-07
   4.305326664840231E-07   4.525995781843389E-07   4.757973419604695E-07
   5.001838954654449E-07   5.258201436591399E-07   5.527701107949949E-07
   5.811010998797540E-07   6.108838599651064E-07   6.421927638336400E-07
   6.751059921833086E-07   7.097057290642678E-07   7.460783665900021E-07
   7.843147203171463E-07   8.245102556520464E-07   8.667653255964917E-07
   9.111854208457850E-07   9.578814323267099E-07   1.006969928501300E-06
   1.058573444448639E-06   1.112820787584584E-06   1.169847358811097E-06
   1.229795489273894E-06   1.292814794815431E-06   1.359062548675952E-06
   1.428704073187863E-06   1.501913150470299E-06   1.578872456101712E-06
   1.659774012827851E-06   1.744819669127575E-06   1.834221600379112E-06
   1.928202837991146E-06   2.026997823161835E-06   2.130852990547217E-06
   2.240027380716171E-06   2.354793284308255E-06   2.475436919276788E-06
   2.602259141609281E-06   2.735576194026747E-06   2.875720491073001E-06
   3.023041444947006E-06   3.177906334170549E-06   3.340701215292982E-06
   3.511831881316436E-06   3.691724869980274E-06   3.880828521777901E-06
   4.079614093397891E-06   4.288576926465195E-06   4.508237676979948E-06
   4.739143606707756E-06   4.981869939749819E-06   5.237021289844901E-06
   5.505233158336855E-06   5.787173509281046E-06   6.083544424731959E-06
   6.395083843976172E-06   6.722567390662878E-06   7.066810293955750E-06
   7.428669405972499E-06   7.809045322555461E-06   8.208884611194558E-06
   8.629182152825038E-06   9.070983601508981E-06   9.535387968766543E-06
   1.002355034100692E-05   1.053668473205958E-05   1.107606708185424E-05
   1.164303840712622E-05   1.223900811089377E-05   1.286545746035486E-05
   1.352394324018069E-05   1.421610159176509E-05   1.494365204547577E-05
   1.570840175713184E-05   1.651224996054003E-05   1.735719264147657E-05
   1.824532745134361E-05   1.917885886716183E-05   2.016010361230923E-05
   2.119149635120883E-05   2.227559567092880E-05   2.341509036451517E-05
   2.461280603147504E-05   2.587171200979831E-05   2.719492865804274E-05
   2.858573500342154E-05   3.004757677533929E-05   3.158407484135826E-05
   3.319903406936202E-05   3.489645263296403E-05   3.668053178540457E-05
   3.855568612297845E-05   4.052655436389319E-05   4.259801066711366E-05
   4.477517651839050E-05   4.706343321132980E-05   4.946843495190260E-05
   5.199612261993409E-05   5.465273821724747E-05   5.744484003729252E-05
   6.037931859119921E-05   6.346341332960897E-05   6.670473019566945E-05
   7.011126005318213E-05   7.369139803182234E-05   7.745396383261327E-05
   8.140822304365408E-05   8.556390951217549E-05   8.993124882720429E-05
   9.452098296499316E-05   9.934439615366290E-05   1.044133420186539E-04
   1.097402720672584E-04   1.153382655799702E-04   1.212210609753572E-04
   1.274030887197981E-04   1.338995058561503E-04   1.407262322294642E-04
   1.478999884901739E-04   1.554383359622618E-04   1.633597184615657E-04
   1.716835061612734E-04   1.804300415990432E-04   1.896206879293307E-04
   1.992778795251375E-04   2.094251750433477E-04   2.200873130657585E-04
   2.312902704415901E-04   2.430613234535045E-04   2.554291119431336E-04
   2.684237065316310E-04   2.820766790809982E-04   2.964211765457937E-04
   3.114919983713773E-04   3.273256776045873E-04   3.439605658852542E-04
   3.614369224967464E-04   3.797970076636340E-04   3.990851802849544E-04
   4.193480003104249E-04   4.406343359626442E-04   4.629954760301104E-04
   4.864852474527874E-04   5.111601384408276E-04   5.370794273697485E-04
   5.643053177083044E-04   5.929030792467681E-04   6.229411958984376E-04
   6.544915203642681E-04   6.876294359567309E-04   7.224340258921091E-04
   7.589882503726276E-04   7.973791317899840E-04   8.376979483947693E-04
   8.800404367889155E-04   9.245070036108288E-04   9.712029467927014E-04
   1.020238686790142E-03   1.071730008187420E-03   1.125798312102291E-03
   1.182570879826108E-03   1.242181148146731E-03   1.304768996816955E-03
   1.370481048645923E-03   1.439470982701300E-03   1.511899861127564E-03
   1.587936470097307E-03   1.667757675424847E-03   1.751548793387436E-03
   1.839503977308613E-03   1.931826620475232E-03   2.028729775966458E-03
   2.130436593987617E-03   2.237180777312972E-03   2.349207055447962E-03
   2.466771678134532E-03   2.590142928827326E-03   2.719601658777024E-03
   2.855441842363000E-03   2.997971154317387E-03   3.147511569489571E-03
   3.304399985795613E-03   3.468988870995820E-03   3.641646933940254E-03
   3.822759820912348E-03   4.012730837689688E-03   4.211981697928528E-03
   4.420953298460351E-03   4.640106522064258E-03   4.869923068256307E-03
   5.110906312601746E-03   5.363582195023059E-03   5.628500137530814E-03
   5.906233991756779E-03   6.197383016614404E-03   6.502572886344685E-03
   6.822456729138267E-03   7.157716196442025E-03   7.509062562967819E-03
   7.877237857324842E-03   8.263016023082234E-03   8.667204109947549E-03
   9.090643494612848E-03   9.534211130666947E-03   9.998820826813696E-03
   1.048542455245269E-02   1.099501376948382E-02   1.152862078898628E-02
   1.208732015118296E-02   1.267223002685502E-02   1.328451363809140E-02
   1.392538069596316E-02   1.459608885238876E-02   1.529794516311074E-02
   1.603230755832567E-02   1.680058631711134E-02   1.760424554135602E-02
   1.844480462443147E-02   1.932383970935452E-02   2.024298513064416E-02
   2.120393483351481E-02   2.220844376343479E-02   2.325832921843503E-02
   2.435547215585882E-02   2.550181844451580E-02   2.669938005242541E-02
   2.795023615951325E-02   2.925653418375679E-02   3.062049070836017E-02
   3.204439229657333E-02   3.353059617975764E-02   3.508153080323646E-02
   3.669969621335378E-02   3.838766426800450E-02   4.014807865168184E-02
   4.198365467483363E-02   4.389717883600300E-02   4.589150812388362E-02
   4.796956903501981E-02   5.013435628144902E-02   5.238893116111562E-02
   5.473641956238462E-02   5.718000957246095E-02   5.972294865797906E-02
   6.236854038447684E-02   6.512014063991908E-02   6.798115332589648E-02
   7.095502547860824E-02   7.404524178026080E-02   7.725531842008405E-02
   8.058879626281563E-02   8.404923328123290E-02   8.764019620815901E-02
   9.136525136235303E-02   9.522795460182990E-02   9.923184035750447E-02
   1.033804096995991E-01   1.076771173890833E-01   1.121253578665269E-01
   1.167284501311952E-01   1.214896214640725E-01   1.264119899497410E-01
   1.314985457538145E-01   1.367521311149157E-01   1.421754190130441E-01
   1.477708904797635E-01   1.535408105198582E-01   1.594872026191882E-01
   1.656118218193835E-01   1.719161263468393E-01   1.784012477913678E-01
   1.850679598387651E-01   1.919166455716725E-01   1.989472633644690E-01
   2.061593114105490E-01   2.135517909344571E-01   2.211231681568084E-01
   2.288713350970150E-01   2.367935693174893E-01   2.448864927332399E-01
   2.531460296328303E-01   2.615673640803070E-01   2.701448968931843E-01
   2.788722024187454E-01   2.877419853597603E-01   2.967460379313291E-01
   3.058751976626185E-01   3.151193061908963E-01   3.244671694302025E-01
   3.339065195330097E-01   3.434239791002703E-01   3.530050281327720E-01
   3.626339742546345E-01   3.722939267775466E-01   3.819667752114446E-01
   3.916331728634694E-01   4.012725262012442E-01   4.108629906884497E-01
   4.203814738293321E-01   4.298036461833232E-01   4.391039611306204E-01
   4.482556841830171E-01   4.572309326406922E-01   4.660007263936429E-01
   4.745350506547295E-01   4.828029313886923E-01   4.907725241663345E-01
   4.984112171241491E-01   5.056857486453716E-01   5.125623402972879E-01
   5.190068454603159E-01   5.249849139653039E-01   5.304621729155797E-01
   5.354044237082589E-01   5.397778550842635E-01   5.435492718278043E-01
   5.466863385032432E-01   5.491578373604094E-01   5.509339392590351E-01
   5.519864861600035E-01   5.522892834073304E-01   5.518183996824934E-01
   5.505524721551904E-01   5.484730139858750E-01   5.455647209605820E-01
   5.418157736637413E-01   5.372181312271410E-01   5.317678123413078E-01
   5.254651588889272E-01   5.183150772693000E-01   5.103272522400126E-01
   5.015163279200179E-01   4.919020504908689E-01   4.815093671144319E-01
   4.703684756709962E-01   4.585148201260452E-01   4.459890266718697E-01
   4.328367762750721E-01   4.191086099050149E-01   4.048596635312725E-01
   3.901493309665105E-01   3.750408537979057E-01   3.596008389924275E-01
   3.438987062705096E-01   3.280060690031134E-01   3.119960541742318E-01
   2.959425688312585E-01   2.799195223747249E-01   2.640000159614873E-01
   2.482555121443555E-01   2.327549995669277E-01   2.175641689845328E-01
   2.027446179886705E-01   1.883531024624521E-01   1.744408528707869E-01
   1.610529728702817E-01   1.482279362910992E-01   1.359971961838621E-01
   1.243849162418956E-01   1.134078304284059E-01   1.030752310184824E-01
   9.338907851102579E-02   8.434421903618464E-02   7.592868611065696E-02
   6.812405409055705E-02   6.090580075037777E-02   5.424362649640865E-02
   4.810166834093886E-02   4.243853858068572E-02   3.721470430411433E-02
   3.241618784930467E-02   2.803395628629624E-02   2.405673247623308E-02
   2.047110504515726E-02   1.726166464540480E-02   1.441116596810768E-02
   1.190071450078198E-02   9.709976531485781E-03   7.817410389974744E-03
   6.200516477224777E-03   4.836102604320824E-03   3.700562974544241E-03
   2.770162139865584E-03   2.021323298818128E-03   1.430919408235420E-03
   9.765600431865806E-04   6.368641034603939E-04   3.917171627693117E-04
   2.225077862732239E-04   1.123377412455828E-04   4.620131138828587E-05
   1.112912612985517E-05  -3.707745250852712E-06  -6.937327940784166E-06
  -4.973436736624426E-06  -2.052734014226787E-06  -3.250876134397451E-07
  -1.387778780781446E-17   0.000000000000000E+00   0.000000000000000E+00
   0.000000000000000E+00   0.000000000000000E+00   0.000000000000000E+00
   0.000000000000000E+00   0.000000000000000E+00   0.000000000000000E+00
   0.000000000000000E+00   0.000000000000000E+00   0.000000000000000E+00
   0.000000000000000E+00   0.000000000000000E+00   0.000000000000000E+00
   0.000000000000000E+00   0.000000000000000E+00   0.000000000000000E+00
   0.000000000000000E+00   0.000000000000000E+00   0.000000000000000E+00
   0.000000000000000E+00   0.000000000000000E+00   0.000000000000000E+00
   0.000000000000000E+00   0.000000000000000E+00   0.000000000000000E+00
   0.000000000000000E+00   0.000000000000000E+00   0.000000000000000E+00
   0.000000000000000E+00   0.000000000000000E+00   0.000000000000000E+00
   0.000000000000000E+00   0.000000000000000E+00   0.000000000000000E+00
   0.000000000000000E+00   0.000000000000000E+00   0.000000000000000E+00
   0.000000000000000E+00   0.000000000000000E+00   0.000000000000000E+00
   0.000000000000000E+00   0.000000000000000E+00   0.000000000000000E+00
   0.000000000000000E+00   0.000000000000000E+00   0.000000000000000E+00
   0.000000000000000E+00   0.000000000000000E+00   0.000000000000000E+00
   0.000000000000000E+00   0.000000000000000E+00   0.000000000000000E+00
   0.000000000000000E+00   0.000000000000000E+00   0.000000000000000E+00
   0.000000000000000E+00   0.000000000000000E+00   0.000000000000000E+00
   0.000000000000000E+00   0.000000000000000E+00   0.000000000000000E+00
   0.000000000000000E+00   0.000000000000000E+00   0.000000000000000E+00
   0.000000000000000E+00   0.000000000000000E+00   0.000000000000000E+00
   0.000000000000000E+00   0.000000000000000E+00   0.000000000000000E+00
   0.000000000000000E+00   0.000000000000000E+00   0.000000000000000E+00
   0.000000000000000E+00   0.000000000000000E+00   0.000000000000000E+00
   0.000000000000000E+00   0.000000000000000E+00   0.000000000000000E+00
   0.000000000000000E+00   0.000000000000000E+00   0.000000000000000E+00
   0.000000000000000E+00   0.000000000000000E+00   0.000000000000000E+00
   0.000000000000000E+00   0.000000000000000E+00   0.000000000000000E+00
   0.000000000000000E+00   0.000000000000000E+00   0.000000000000000E+00
   0.000000000000000E+00   0.000000000000000E+00   0.000000000000000E+00
   0.000000000000000E+00   0.000000000000000E+00   0.000000000000000E+00
   0.000000000000000E+00   0.000000000000000E+00   0.000000000000000E+00
   0.000000000000000E+00   0.000000000000000E+00   0.000000000000000E+00
   0.000000000000000E+00   0.000000000000000E+00   0.000000000000000E+00
   0.000000000000000E+00   0.000000000000000E+00   0.000000000000000E+00
   0.000000000000000E+00   0.000000000000000E+00   0.000000000000000E+00
   0.000000000000000E+00   0.000000000000000E+00   0.000000000000000E+00
   0.000000000000000E+00   0.000000000000000E+00   0.000000000000000E+00
   0.000000000000000E+00   0.000000000000000E+00   0.000000000000000E+00
   0.000000000000000E+00   0.000000000000000E+00   0.000000000000000E+00
   0.000000000000000E+00   0.000000000000000E+00   0.000000000000000E+00
   0.000000000000000E+00   0.000000000000000E+00   0.000000000000000E+00
   0.000000000000000E+00   0.000000000000000E+00   0.000000000000000E+00
   0.000000000000000E+00   0.000000000000000E+00   0.000000000000000E+00
   0.000000000000000E+00   0.000000000000000E+00   0.000000000000000E+00
   0.000000000000000E+00   0.000000000000000E+00   0.000000000000000E+00
   0.000000000000000E+00   0.000000000000000E+00   0.000000000000000E+00
   0.000000000000000E+00   0.000000000000000E+00   0.000000000000000E+00
   0.000000000000000E+00   0.000000000000000E+00   0.000000000000000E+00
   0.000000000000000E+00   0.000000000000000E+00   0.000000000000000E+00
   0.000000000000000E+00   0.000000000000000E+00   0.000000000000000E+00
   0.000000000000000E+00   0.000000000000000E+00   0.000000000000000E+00
   0.000000000000000E+00   0.000000000000000E+00   0.000000000000000E+00
   0.000000000000000E+00   0.000000000000000E+00   0.000000000000000E+00
   0.000000000000000E+00   0.000000000000000E+00   0.000000000000000E+00
   0.000000000000000E+00   0.000000000000000E+00   0.000000000000000E+00
   0.000000000000000E+00   0.000000000000000E+00   0.000000000000000E+00
   0.000000000000000E+00   0.000000000000000E+00   0.000000000000000E+00
   0.000000000000000E+00   0.000000000000000E+00   0.000000000000000E+00
   0.000000000000000E+00   0.000000000000000E+00   0.000000000000000E+00
   0.000000000000000E+00   0.000000000000000E+00   0.000000000000000E+00
   0.000000000000000E+00   0.000000000000000E+00   0.000000000000000E+00
   0.000000000000000E+00   0.000000000000000E+00   0.000000000000000E+00
   0.000000000000000E+00   0.000000000000000E+00   0.000000000000000E+00
   0.000000000000000E+00   0.000000000000000E+00   0.000000000000000E+00
   0.000000000000000E+00   0.000000000000000E+00   0.000000000000000E+00
   0.000000000000000E+00   0.000000000000000E+00   0.000000000000000E+00
   0.000000000000000E+00   0.000000000000000E+00   0.000000000000000E+00
   0.000000000000000E+00   0.000000000000000E+00   0.000000000000000E+00
   0.000000000000000E+00   0.000000000000000E+00   0.000000000000000E+00
   0.000000000000000E+00   0.000000000000000E+00   0.000000000000000E+00
   0.000000000000000E+00   0.000000000000000E+00   0.000000000000000E+00
   0.000000000000000E+00   0.000000000000000E+00   0.000000000000000E+00
   0.000000000000000E+00   0.000000000000000E+00   0.000000000000000E+00
   0.000000000000000E+00   0.000000000000000E+00   0.000000000000000E+00
   0.000000000000000E+00   0.000000000000000E+00   0.000000000000000E+00
   0.000000000000000E+00   0.000000000000000E+00   0.000000000000000E+00
   0.000000000000000E+00   0.000000000000000E+00   0.000000000000000E+00
   0.000000000000000E+00   0.000000000000000E+00   0.000000000000000E+00
   0.000000000000000E+00   0.000000000000000E+00   0.000000000000000E+00
   0.000000000000000E+00   0.000000000000000E+00   0.000000000000000E+00
   0.000000000000000E+00   0.000000000000000E+00   0.000000000000000E+00
   0.000000000000000E+00   0.000000000000000E+00   0.000000000000000E+00
   0.000000000000000E+00   0.000000000000000E+00   0.000000000000000E+00
   0.000000000000000E+00   0.000000000000000E+00   0.000000000000000E+00
   0.000000000000000E+00   0.000000000000000E+00   0.000000000000000E+00
   0.000000000000000E+00   0.000000000000000E+00   0.000000000000000E+00
   0.000000000000000E+00   0.000000000000000E+00   0.000000000000000E+00
   0.000000000000000E+00   0.000000000000000E+00   0.000000000000000E+00
   0.000000000000000E+00   0.000000000000000E+00   0.000000000000000E+00
   0.000000000000000E+00   0.000000000000000E+00   0.000000000000000E+00
   0.000000000000000E+00   0.000000000000000E+00   0.000000000000000E+00
   0.000000000000000E+00   0.000000000000000E+00   0.000000000000000E+00
   0.000000000000000E+00   0.000000000000000E+00   0.000000000000000E+00
   0.000000000000000E+00   0.000000000000000E+00   0.000000000000000E+00
   0.000000000000000E+00   0.000000000000000E+00   0.000000000000000E+00
   0.000000000000000E+00   0.000000000000000E+00   0.000000000000000E+00
   0.000000000000000E+00   0.000000000000000E+00   0.000000000000000E+00
   0.000000000000000E+00   0.000000000000000E+00   0.000000000000000E+00
   0.000000000000000E+00   0.000000000000000E+00   0.000000000000000E+00
   0.000000000000000E+00   0.000000000000000E+00   0.000000000000000E+00
   0.000000000000000E+00   0.000000000000000E+00   0.000000000000000E+00
   0.000000000000000E+00   0.000000000000000E+00   0.000000000000000E+00
   0.000000000000000E+00   0.000000000000000E+00   0.000000000000000E+00
   0.000000000000000E+00   0.000000000000000E+00   0.000000000000000E+00
   0.000000000000000E+00   0.000000000000000E+00   0.000000000000000E+00
   0.000000000000000E+00   0.000000000000000E+00   0.000000000000000E+00
   0.000000000000000E+00   0.000000000000000E+00   0.000000000000000E+00
   0.000000000000000E+00   0.000000000000000E+00   0.000000000000000E+00
   0.000000000000000E+00   0.000000000000000E+00   0.000000000000000E+00
   0.000000000000000E+00   0.000000000000000E+00   0.000000000000000E+00
   0.000000000000000E+00   0.000000000000000E+00   0.000000000000000E+00
   0.000000000000000E+00   0.000000000000000E+00   0.000000000000000E+00
   0.000000000000000E+00   0.000000000000000E+00   0.000000000000000E+00
   0.000000000000000E+00
      </PP_QIJL.3.4.2>
      <PP_QIJL.4.4.0 first_index="4" second_index="4" composite_index="10" angular_momentum="0" size="1129">
   2.527819109717292E-08   2.591811153247171E-08   2.657423162974374E-08
   2.724696148533443E-08   2.793672157722515E-08   2.864394302784528E-08
   2.936906787353763E-08   3.011254934084539E-08   3.087485212979305E-08
   3.165645270433919E-08   3.245783959018131E-08   3.327951368010020E-08
   3.412198854703399E-08   3.498579076507752E-08   3.587146023860838E-08
   3.677955053974380E-08   3.771062925434137E-08   3.866527833675817E-08
   3.964409447359071E-08   4.064768945662344E-08   4.167669056521766E-08
   4.273174095838139E-08   4.381350007676416E-08   4.492264405482837E-08
   4.605986614345507E-08   4.722587714324738E-08   4.842140584880381E-08
   4.964719950423783E-08   5.090402427022916E-08   5.219266570289881E-08
   5.351392924480600E-08   5.486864072837571E-08   5.625764689206985E-08
   5.768181590962560E-08   5.914203793269170E-08   6.063922564720097E-08
   6.217431484382791E-08   6.374826500288745E-08   6.536205989404030E-08
   6.701670819118027E-08   6.871324410288656E-08   7.045272801883713E-08
   7.223624717258519E-08   7.406491632111443E-08   7.593987844159744E-08
   7.786230544579136E-08   7.983339891252000E-08   8.185439083869798E-08
   8.392654440936717E-08   8.605115478722699E-08   8.822954992215091E-08
   9.046309138119689E-08   9.275317519962877E-08   9.510123275348158E-08
   9.750873165421662E-08   9.997717666602296E-08   1.025081106463422E-07
   1.051031155102017E-07   1.077638132189606E-07   1.104918667940854E-07
   1.132889813565892E-07   1.161569051927850E-07   1.190974308470179E-07
   1.221123962420604E-07   1.252036858278704E-07   1.283732317594293E-07
   1.316230151043980E-07   1.349550670813448E-07   1.383714703293172E-07
   1.418743602095565E-07   1.454659261401610E-07   1.491484129645394E-07
   1.529241223545055E-07   1.567954142488913E-07   1.607647083285812E-07
   1.648344855288829E-07   1.690072895901872E-07   1.732857286478810E-07
   1.776724768625095E-07   1.821702760912063E-07   1.867819376014336E-07
   1.915103438281087E-07   1.963584501752098E-07   2.013292868629899E-07
   2.064259608219543E-07   2.116516576347809E-07   2.170096435274032E-07
   2.225032674104954E-07   2.281359629726386E-07   2.339112508264758E-07
   2.398327407091940E-07   2.459041337387145E-07   2.521292247269966E-07
   2.585119045519026E-07   2.650561625891074E-07   2.717660892055695E-07
   2.786458783161259E-07   2.856998300048053E-07   2.929323532125010E-07
   3.003479684926822E-07   3.079513108368616E-07   3.157471325715952E-07
   3.237403063288148E-07   3.319358280913555E-07   3.403388203155829E-07
   3.489545351330612E-07   3.577883576332809E-07   3.668458092294798E-07
   3.761325511096743E-07   3.856543877750521E-07   3.954172706679343E-07
   4.054273018915837E-07   4.156907380241767E-07   4.262139940293247E-07
   4.370036472655931E-07   4.480664415975119E-07   4.594092916106640E-07
   4.710392869334734E-07   4.829636966683972E-07   4.951899739352963E-07
   5.077257605298127E-07   5.205788916996797E-07   5.337574010419375E-07
   5.472695255241224E-07   5.611237106325676E-07   5.753286156510241E-07
   5.898931190729164E-07   6.048263241506013E-07   6.201375645851059E-07
   6.358364103599029E-07   6.519326737223544E-07   6.684364153165858E-07
   6.853579504716012E-07   7.027078556485844E-07   7.204969750514116E-07
   7.387364274044969E-07   7.574376129022237E-07   7.766122203342969E-07
   7.962722343914615E-07   8.164299431561757E-07   8.370979457828863E-07
   8.582891603727420E-07   8.800168320476435E-07   9.022945412286800E-07
   9.251362121241386E-07   9.485561214323668E-07   9.725689072649538E-07
   9.971895782957933E-07   1.022433523141739E-06   1.048316519980744E-06
   1.074854746413445E-06   1.102064789574417E-06   1.129963656499361E-06
   1.158568784754740E-06   1.187898053336496E-06   1.217969793844647E-06
   1.248802801940764E-06   1.280416349095492E-06   1.312830194633427E-06
   1.346064598082924E-06   1.380140331838492E-06   1.415078694143757E-06
   1.450901522403053E-06   1.487631206829986E-06   1.525290704441509E-06
   1.563903553406200E-06   1.603493887755803E-06   1.644086452469127E-06
   1.685706618937790E-06   1.728380400823478E-06   1.772134470316549E-06
   1.816996174806285E-06   1.862993553973041E-06   1.910155357313113E-06
   1.958511062107210E-06   2.008090891843722E-06   2.058925835108435E-06
   2.111047664952304E-06   2.164488958749556E-06   2.219283118558459E-06
   2.275464391997425E-06   2.333067893649653E-06   2.392129627009491E-06
   2.452686506984387E-06   2.514776382966420E-06   2.578438062487785E-06
   2.643711335475177E-06   2.710636999117995E-06   2.779256883366108E-06
   2.849613877073032E-06   2.921751954800781E-06   2.995716204303354E-06
   3.071552854705757E-06   3.149309305396376E-06   3.229034155650710E-06
   3.310777235004829E-06   3.394589634397816E-06   3.480523738102335E-06
   3.568633256463512E-06   3.658973259466522E-06   3.751600211153696E-06
   3.846572004912998E-06   3.943947999659512E-06   4.043789056932854E-06
   4.146157578933576E-06   4.251117547522223E-06   4.358734564205675E-06
   4.469075891135424E-06   4.582210493143662E-06   4.698209080843364E-06
   4.817144154819133E-06   4.939090050936774E-06   5.064122986799470E-06
   5.192321109379910E-06   5.323764543858027E-06   5.458535443694693E-06
   5.596718041973014E-06   5.738398704038871E-06   5.883665981473900E-06
   6.032610667434547E-06   6.185325853391583E-06   6.341906987305935E-06
   6.502451933276633E-06   6.667061032698592E-06   6.835837166968238E-06
   7.008885821775972E-06   7.186315153026103E-06   7.368236054424844E-06
   7.554762226779000E-06   7.746010249048560E-06   7.942099651197248E-06
   8.143152988887146E-06   8.349295920063326E-06   8.560657283476855E-06
   8.777369179195055E-06   8.999567051149007E-06   9.227389771770466E-06
   9.460979728770326E-06   9.700482914113348E-06   9.946049015244557E-06
   1.019783150862396E-05   1.045598775562871E-05   1.072067910088169E-05
   1.099207097306866E-05   1.127033298830651E-05   1.155563905612717E-05
   1.184816748814365E-05   1.214810110946555E-05   1.245562737293403E-05
   1.277093847624741E-05   1.309423148205028E-05   1.342570844106157E-05
   1.376557651831784E-05   1.411404812261110E-05   1.447134103920168E-05
   1.483767856588896E-05   1.521328965252504E-05   1.559840904405821E-05
   1.599327742719570E-05   1.639814158077710E-05   1.681325452995219E-05
   1.723887570425966E-05   1.767527109970500E-05   1.812271344493900E-05
   1.858148237164033E-05   1.905186458920849E-05   1.953415406387629E-05
   2.002865220235334E-05   2.053566804011526E-05   2.105551843445602E-05
   2.158852826242378E-05   2.213503062376365E-05   2.269536704899399E-05
   2.326988771274598E-05   2.385895165249944E-05   2.446292699285130E-05
   2.508219117545670E-05   2.571713119478566E-05   2.636814383984272E-05
   2.703563594200013E-05   2.772002462909871E-05   2.842173758597532E-05
   2.914121332157874E-05   2.987890144284080E-05   3.063526293547336E-05
   3.141077045186568E-05   3.220590860626246E-05   3.302117427740513E-05
   3.385707691882615E-05   3.471413887698899E-05   3.559289571747163E-05
   3.649389655939761E-05   3.741770441832183E-05   3.836489655778540E-05
   3.933606484975805E-05   4.033181614419233E-05   4.135277264792009E-05
   4.239957231312642E-05   4.347286923564343E-05   4.457333406331142E-05
   4.570165441466109E-05   4.685853530817826E-05   4.804469960241687E-05
   4.926088844723506E-05   5.050786174643437E-05   5.178639863208955E-05
   5.309729795086460E-05   5.444137876261635E-05   5.581948085159644E-05
   5.723246525056877E-05   5.868121477816794E-05   6.016663458983339E-05
   6.168965274266034E-05   6.325122077451889E-05   6.485231429780144E-05
   6.649393360816539E-05   6.817710430865131E-05   6.990287794956144E-05
   7.167233268449755E-05   7.348657394296467E-05   7.534673511995650E-05
   7.725397828295267E-05   7.920949489676379E-05   8.121450656667527E-05
   8.327026580034952E-05   8.537805678896002E-05   8.753919620803837E-05
   8.975503403853394E-05   9.202695440859197E-05   9.435637645657197E-05
   9.674475521584176E-05   9.919358252189122E-05   1.017043879423319E-04
   1.042787397303532E-04   1.069182458022270E-04   1.096245547394650E-04
   1.123993568162457E-04   1.152443850527495E-04   1.181614162950486E-04
   1.211522723222214E-04   1.242188209813735E-04   1.273629773512644E-04
   1.305867049352597E-04   1.338920168843437E-04   1.372809772509455E-04
   1.407557022743521E-04   1.443183616984988E-04   1.479711801229500E-04
   1.517164383879012E-04   1.555564749940533E-04   1.594936875582350E-04
   1.635305343056629E-04   1.676695355997633E-04   1.719132755104893E-04
   1.762644034220983E-04   1.807256356813791E-04   1.852997572873315E-04
   1.899896236233450E-04   1.947981622329287E-04   1.997283746400855E-04
   2.047833382154433E-04   2.099662080892816E-04   2.152802191126291E-04
   2.207286878676263E-04   2.263150147283818E-04   2.320426859735825E-04
   2.379152759521403E-04   2.439364493032037E-04   2.501099632318799E-04
   2.564396698420568E-04   2.629295185277432E-04   2.695835584243777E-04
   2.764059409216023E-04   2.834009222390204E-04   2.905728660665031E-04
   2.979262462706484E-04   3.054656496690223E-04   3.131957788738741E-04
   3.211214552070342E-04   3.292476216877618E-04   3.375793460953454E-04
   3.461218241082969E-04   3.548803825220405E-04   3.638604825470266E-04
   3.730677231892547E-04   3.825078447152379E-04   3.921867322034907E-04
   4.021104191846570E-04   4.122850913724787E-04   4.227170904878164E-04
   4.334129181780196E-04   4.443792400339821E-04   4.556228897072713E-04
   4.671508731297936E-04   4.789703728384928E-04   4.910887524076584E-04
   5.035135609914690E-04   5.162525379794552E-04   5.293136177676430E-04
   5.427049346481927E-04   5.564348278204095E-04   5.705118465260881E-04
   5.849447553121912E-04   5.997425394239688E-04   6.149144103316654E-04
   6.304698113940478E-04   6.464184236620692E-04   6.627701718260300E-04
   6.795352303097201E-04   6.967240295150617E-04   7.143472622208718E-04
   7.324158901394581E-04   7.509411506348037E-04   7.699345636062386E-04
   7.894079385415276E-04   8.093733817434322E-04   8.298433037338710E-04
   8.508304268398953E-04   8.723477929658126E-04   8.944087715558550E-04
   9.170270677519016E-04   9.402167307508689E-04   9.639921623664529E-04
   9.883681258000526E-04   1.013359754625770E-03   1.038982561994499E-03
   1.065252450062231E-03   1.092185719647791E-03   1.119799080125352E-03
   1.148109659557176E-03   1.177135015072129E-03   1.206893143495665E-03
   1.237402492237041E-03   1.268681970439696E-03   1.300750960400816E-03
   1.333629329266208E-03   1.367337441006803E-03   1.401896168683100E-03
   1.437326907004149E-03   1.473651585187658E-03   1.510892680128021E-03
   1.549073229879147E-03   1.588216847459110E-03   1.628347734983799E-03
   1.669490698136827E-03   1.711671160983126E-03   1.754915181133785E-03
   1.799249465269782E-03   1.844701385032463E-03   1.891298993288691E-03
   1.939071040778737E-03   1.988046993155181E-03   2.038257048421070E-03
   2.089732154775922E-03   2.142504028878122E-03   2.196605174532462E-03
   2.252068901811736E-03   2.308929346621312E-03   2.367221490715920E-03
   2.426981182177821E-03   2.488245156365773E-03   2.551051057344322E-03
   2.615437459802957E-03   2.681443891474958E-03   2.749110856065727E-03
   2.818479856700553E-03   2.889593419901917E-03   2.962495120106425E-03
   3.037229604731676E-03   3.113842619803379E-03   3.192381036153134E-03
   3.272892876197401E-03   3.355427341308140E-03   3.440034839785850E-03
   3.526767015445583E-03   3.615676776826694E-03   3.706818327037056E-03
   3.800247194242456E-03   3.896020262811995E-03   3.994195805130230E-03
   4.094833514086758E-03   4.197994536254011E-03   4.303741505763810E-03
   4.412138578893381E-03   4.523251469371230E-03   4.637147484413293E-03
   4.753895561499662E-03   4.873566305901886E-03   4.996232028970916E-03
   5.121966787195312E-03   5.250846422039297E-03   5.382948600569895E-03
   5.518352856882026E-03   5.657140634330359E-03   5.799395328576096E-03
   5.945202331456625E-03   6.094649075685565E-03   6.247825080390053E-03
   6.404821997491948E-03   6.565733658938775E-03   6.730656124789682E-03
   6.899687732161230E-03   7.072929145036674E-03   7.250483404942222E-03
   7.432455982492343E-03   7.618954829805625E-03   7.810090433791747E-03
   8.005975870308678E-03   8.206726859188756E-03   8.412461820130472E-03
   8.623301929451812E-03   8.839371177699748E-03   9.060796428108484E-03
   9.287707475898278E-03   9.520237108404208E-03   9.758521166022955E-03
   1.000269860396374E-02   1.025291155478708E-02   1.050930539171367E-02
   1.077202879268256E-02   1.104123380513612E-02   1.131707591150608E-02
   1.159971409537257E-02   1.188931090826520E-02   1.218603253707199E-02
   1.249004887201864E-02   1.280153357517765E-02   1.312066414946233E-02
   1.344762200805795E-02   1.378259254423728E-02   1.412576520150400E-02
   1.447733354400282E-02   1.483749532713018E-02   1.520645256827473E-02
   1.558441161761103E-02   1.597158322886476E-02   1.636818262996139E-02
   1.677442959346427E-02   1.719054850670170E-02   1.761676844147527E-02
   1.805332322323499E-02   1.850045149959861E-02   1.895839680808491E-02
   1.942740764292229E-02   1.990773752078514E-02   2.039964504530089E-02
   2.090339397016179E-02   2.141925326066403E-02   2.194749715348748E-02
   2.248840521451727E-02   2.304226239449680E-02   2.360935908229016E-02
   2.418999115551799E-02   2.478446002831877E-02   2.539307269597229E-02
   2.601614177610813E-02   2.665398554620654E-02   2.730692797708261E-02
   2.797529876202896E-02   2.865943334127389E-02   2.935967292139404E-02
   3.007636448930236E-02   3.080986082041077E-02   3.156052048054913E-02
   3.232870782119817E-02   3.311479296757330E-02   3.391915179907343E-02
   3.474216592158332E-02   3.558422263109603E-02   3.644571486809299E-02
   3.732704116209551E-02   3.822860556577189E-02   3.915081757795656E-02
   4.009409205490829E-02   4.105884910910354E-02   4.204551399482947E-02
   4.305451697980940E-02   4.408629320205808E-02   4.514128251113261E-02
   4.621992929290621E-02   4.732268227695760E-02   4.844999432563118E-02
   4.960232220378276E-02   5.078012632818985E-02   5.198387049556222E-02
   5.321402158804866E-02   5.447104925509505E-02   5.575542557046335E-02
   5.706762466318234E-02   5.840812232115292E-02   5.977739556608893E-02
   6.117592219842980E-02   6.260418031081376E-02   6.406264776865954E-02
   6.555180165635514E-02   6.707211768750929E-02   6.862406957767656E-02
   7.020812837792106E-02   7.182476176754245E-02   7.347443330424321E-02
   7.515760162997570E-02   7.687471963066747E-02   7.862623354798340E-02
   8.041258204125032E-02   8.223419519763200E-02   8.409149348861475E-02
   8.598488667083434E-02   8.791477262925061E-02   8.988153616065929E-02
   9.188554769551173E-02   9.392716195600621E-02   9.600671654841061E-02
   9.812453048757665E-02   1.002809026516208E-01   1.024761101647609E-01
   1.047104067063267E-01   1.069840207440011E-01   1.092971536893923E-01
   1.116499779741037E-01   1.140426350445316E-01   1.164752332737163E-01
   1.189478457886665E-01   1.214605082116972E-01   1.240132163144570E-01
   1.266059235834739E-01   1.292385386962230E-01   1.319109229069176E-01
   1.346228873414425E-01   1.373741902010977E-01   1.401645338750886E-01
   1.429935619620035E-01   1.458608562008485E-01   1.487659333125731E-01
   1.517082417534230E-01   1.546871583818856E-01   1.577019850414711E-01
   1.607519450620861E-01   1.638361796833100E-01   1.669537444034936E-01
   1.701036052592382E-01   1.732846350405222E-01   1.764956094474837E-01
   1.797352031956699E-01   1.830019860774350E-01   1.862944189880604E-01
   1.896108499261661E-01   1.929495099790094E-01   1.963085093043540E-01
   1.996858331217722E-01   2.030793377274440E-01   2.064867465478202E-01
   2.099056462488698E-01   2.133334829190336E-01   2.167675583455117E-01
   2.202050264050363E-01   2.236428895918957E-01   2.270779957076491E-01
   2.305070347386665E-01   2.339265359494335E-01   2.373328652213449E-01
   2.407222226685942E-01   2.440906405646514E-01   2.474339816147252E-01
   2.507479376115649E-01   2.540280285138658E-01   2.572696019884928E-01
   2.604678334596365E-01   2.636177267098760E-01   2.667141150799560E-01
   2.697516633157990E-01   2.727248701129301E-01   2.756280714100051E-01
   2.784554444844907E-01   2.812010129047596E-01   2.838586523938211E-01
   2.864220976606709E-01   2.888849502556991E-01   2.912406875067357E-01
   2.934826725921184E-01   2.956041658065335E-01   2.975983370743344E-01
   2.994582797634793E-01   3.011770258511151E-01   3.027475624891434E-01
   3.041628500147291E-01   3.054158414466523E-01   3.064995035035640E-01
   3.074068391745458E-01   3.081309118658447E-01   3.086648711401683E-01
   3.090019800564799E-01   3.091356441087236E-01   3.090594417513235E-01
   3.087671564875819E-01   3.082528104842124E-01   3.075106996611532E-01
   3.065354301904923E-01   3.053219563217897E-01   3.038656194332888E-01
   3.021621881894986E-01   3.002078996654048E-01   2.979995012761887E-01
   2.955342933288518E-01   2.928101719886271E-01   2.898256724286279E-01
   2.865800119059372E-01   2.830731324814234E-01   2.793057430741806E-01
   2.752793605147503E-01   2.709963492345018E-01   2.664599592018845E-01
   2.616743616900052E-01   2.566446824344741E-01   2.513770317158651E-01
   2.458785308779494E-01   2.401573347712484E-01   2.342226495918504E-01
   2.280847455681712E-01   2.217549639336622E-01   2.152457176118099E-01
   2.085704850312916E-01   2.017437964841685E-01   1.947812124387061E-01
   1.876992932208533E-01   1.805155594847827E-01   1.732484429030026E-01
   1.659172265203540E-01   1.585419742334405E-01   1.511434488772209E-01
   1.437430184232694E-01   1.363625498187527E-01   1.290242900207925E-01
   1.217507338066771E-01   1.145644779651931E-01   1.074880614972542E-01
   1.005437914736523E-01   9.375355421314506E-02   8.713861145412743E-02
   8.071938119684555E-02   7.451520289005654E-02   6.854408662586688E-02
   6.282244598971153E-02   5.736481419022356E-02   5.218354306814708E-02
   4.728848455798515E-02   4.268665415543272E-02   3.838187593453221E-02
   3.437440866951186E-02   3.066055265837171E-02   2.723223693213869E-02
   2.407658668172190E-02   2.117547096310054E-02   1.850903232785645E-02
   1.606896212258430E-02   1.384932811702785E-02   1.184304597771979E-02
   1.004195305875913E-02   8.436895965641289E-03   7.017831310919390E-03
   5.773938810263779E-03   4.693745589251910E-03   3.765260290520878E-03
   2.976115294135648E-03   2.313715098314378E-03   1.765388659362335E-03
   1.318542946227158E-03   9.608147293613117E-04   6.802198675115029E-04
   4.652975426762962E-04   3.052424535272061E-04   1.900250461996586E-04
   1.104964001286540E-04   5.847503950896088E-05   2.681319709535446E-05
   9.440235305635536E-06   1.381222861480957E-06  -1.251013949682411E-06
  -1.291694394139897E-06  -5.886968834287187E-07  -9.655321196039290E-08
   0.000000000000000E+00   0.000000000000000E+00   0.000000000000000E+00
   0.000000000000000E+00   0.000000000000000E+00   0.000000000000000E+00
   0.000000000000000E+00   0.000000000000000E+00   0.000000000000000E+00
   0.000000000000000E+00   0.000000000000000E+00   0.000000000000000E+00
   0.000000000000000E+00   0.000000000000000E+00   0.000000000000000E+00
   0.000000000000000E+00   0.000000000000000E+00   0.000000000000000E+00
   0.000000000000000E+00   0.000000000000000E+00   0.000000000000000E+00
   0.000000000000000E+00   0.000000000000000E+00   0.000000000000000E+00
   0.000000000000000E+00   0.000000000000000E+00   0.000000000000000E+00
   0.000000000000000E+00   0.000000000000000E+00   0.000000000000000E+00
   0.000000000000000E+00   0.000000000000000E+00   0.000000000000000E+00
   0.000000000000000E+00   0.000000000000000E+00   0.000000000000000E+00
   0.000000000000000E+00   0.000000000000000E+00   0.000000000000000E+00
   0.000000000000000E+00   0.000000000000000E+00   0.000000000000000E+00
   0.000000000000000E+00   0.000000000000000E+00   0.000000000000000E+00
   0.000000000000000E+00   0.000000000000000E+00   0.000000000000000E+00
   0.000000000000000E+00   0.000000000000000E+00   0.000000000000000E+00
   0.000000000000000E+00   0.000000000000000E+00   0.000000000000000E+00
   0.000000000000000E+00   0.000000000000000E+00   0.000000000000000E+00
   0.000000000000000E+00   0.000000000000000E+00   0.000000000000000E+00
   0.000000000000000E+00   0.000000000000000E+00   0.000000000000000E+00
   0.000000000000000E+00   0.000000000000000E+00   0.000000000000000E+00
   0.000000000000000E+00   0.000000000000000E+00   0.000000000000000E+00
   0.000000000000000E+00   0.000000000000000E+00   0.000000000000000E+00
   0.000000000000000E+00   0.000000000000000E+00   0.000000000000000E+00
   0.000000000000000E+00   0.000000000000000E+00   0.000000000000000E+00
   0.000000000000000E+00   0.000000000000000E+00   0.000000000000000E+00
   0.000000000000000E+00   0.000000000000000E+00   0.000000000000000E+00
   0.000000000000000E+00   0.000000000000000E+00   0.000000000000000E+00
   0.000000000000000E+00   0.000000000000000E+00   0.000000000000000E+00
   0.000000000000000E+00   0.000000000000000E+00   0.000000000000000E+00
   0.000000000000000E+00   0.000000000000000E+00   0.000000000000000E+00
   0.000000000000000E+00   0.000000000000000E+00   0.000000000000000E+00
   0.000000000000000E+00   0.000000000000000E+00   0.000000000000000E+00
   0.000000000000000E+00   0.000000000000000E+00   0.000000000000000E+00
   0.000000000000000E+00   0.000000000000000E+00   0.000000000000000E+00
   0.000000000000000E+00   0.000000000000000E+00   0.000000000000000E+00
   0.000000000000000E+00   0.000000000000000E+00   0.000000000000000E+00
   0.000000000000000E+00   0.000000000000000E+00   0.000000000000000E+00
   0.000000000000000E+00   0.000000000000000E+00   0.000000000000000E+00
   0.000000000000000E+00   0.000000000000000E+00   0.000000000000000E+00
   0.000000000000000E+00   0.000000000000000E+00   0.000000000000000E+00
   0.000000000000000E+00   0.000000000000000E+00   0.000000000000000E+00
   0.000000000000000E+00   0.000000000000000E+00   0.000000000000000E+00
   0.000000000000000E+00   0.000000000000000E+00   0.000000000000000E+00
   0.000000000000000E+00   0.000000000000000E+00   0.000000000000000E+00
   0.000000000000000E+00   0.000000000000000E+00   0.000000000000000E+00
   0.000000000000000E+00   0.000000000000000E+00   0.000000000000000E+00
   0.000000000000000E+00   0.000000000000000E+00   0.000000000000000E+00
   0.000000000000000E+00   0.000000000000000E+00   0.000000000000000E+00
   0.000000000000000E+00   0.000000000000000E+00   0.000000000000000E+00
   0.000000000000000E+00   0.000000000000000E+00   0.000000000000000E+00
   0.000000000000000E+00   0.000000000000000E+00   0.000000000000000E+00
   0.000000000000000E+00   0.000000000000000E+00   0.000000000000000E+00
   0.000000000000000E+00   0.000000000000000E+00   0.000000000000000E+00
   0.000000000000000E+00   0.000000000000000E+00   0.000000000000000E+00
   0.000000000000000E+00   0.000000000000000E+00   0.000000000000000E+00
   0.000000000000000E+00   0.000000000000000E+00   0.000000000000000E+00
   0.000000000000000E+00   0.000000000000000E+00   0.000000000000000E+00
   0.000000000000000E+00   0.000000000000000E+00   0.000000000000000E+00
   0.000000000000000E+00   0.000000000000000E+00   0.000000000000000E+00
   0.000000000000000E+00   0.000000000000000E+00   0.000000000000000E+00
   0.000000000000000E+00   0.000000000000000E+00   0.000000000000000E+00
   0.000000000000000E+00   0.000000000000000E+00   0.000000000000000E+00
   0.000000000000000E+00   0.000000000000000E+00   0.000000000000000E+00
   0.000000000000000E+00   0.000000000000000E+00   0.000000000000000E+00
   0.000000000000000E+00   0.000000000000000E+00   0.000000000000000E+00
   0.000000000000000E+00   0.000000000000000E+00   0.000000000000000E+00
   0.000000000000000E+00   0.000000000000000E+00   0.000000000000000E+00
   0.000000000000000E+00   0.000000000000000E+00   0.000000000000000E+00
   0.000000000000000E+00   0.000000000000000E+00   0.000000000000000E+00
   0.000000000000000E+00   0.000000000000000E+00   0.000000000000000E+00
   0.000000000000000E+00   0.000000000000000E+00   0.000000000000000E+00
   0.000000000000000E+00   0.000000000000000E+00   0.000000000000000E+00
   0.000000000000000E+00   0.000000000000000E+00   0.000000000000000E+00
   0.000000000000000E+00   0.000000000000000E+00   0.000000000000000E+00
   0.000000000000000E+00   0.000000000000000E+00   0.000000000000000E+00
   0.000000000000000E+00   0.000000000000000E+00   0.000000000000000E+00
   0.000000000000000E+00   0.000000000000000E+00   0.000000000000000E+00
   0.000000000000000E+00   0.000000000000000E+00   0.000000000000000E+00
   0.000000000000000E+00   0.000000000000000E+00   0.000000000000000E+00
   0.000000000000000E+00   0.000000000000000E+00   0.000000000000000E+00
   0.000000000000000E+00   0.000000000000000E+00   0.000000000000000E+00
   0.000000000000000E+00   0.000000000000000E+00   0.000000000000000E+00
   0.000000000000000E+00   0.000000000000000E+00   0.000000000000000E+00
   0.000000000000000E+00   0.000000000000000E+00   0.000000000000000E+00
   0.000000000000000E+00   0.000000000000000E+00   0.000000000000000E+00
   0.000000000000000E+00   0.000000000000000E+00   0.000000000000000E+00
   0.000000000000000E+00   0.000000000000000E+00   0.000000000000000E+00
   0.000000000000000E+00   0.000000000000000E+00   0.000000000000000E+00
   0.000000000000000E+00   0.000000000000000E+00   0.000000000000000E+00
   0.000000000000000E+00   0.000000000000000E+00   0.000000000000000E+00
   0.000000000000000E+00   0.000000000000000E+00   0.000000000000000E+00
   0.000000000000000E+00   0.000000000000000E+00   0.000000000000000E+00
   0.000000000000000E+00   0.000000000000000E+00   0.000000000000000E+00
   0.000000000000000E+00   0.000000000000000E+00   0.000000000000000E+00
   0.000000000000000E+00   0.000000000000000E+00   0.000000000000000E+00
   0.000000000000000E+00   0.000000000000000E+00   0.000000000000000E+00
   0.000000000000000E+00   0.000000000000000E+00   0.000000000000000E+00
   0.000000000000000E+00   0.000000000000000E+00   0.000000000000000E+00
   0.000000000000000E+00   0.000000000000000E+00   0.000000000000000E+00
   0.000000000000000E+00   0.000000000000000E+00   0.000000000000000E+00
   0.000000000000000E+00   0.000000000000000E+00   0.000000000000000E+00
   0.000000000000000E+00   0.000000000000000E+00   0.000000000000000E+00
   0.000000000000000E+00   0.000000000000000E+00   0.000000000000000E+00
   0.000000000000000E+00   0.000000000000000E+00   0.000000000000000E+00
   0.000000000000000E+00   0.000000000000000E+00   0.000000000000000E+00
   0.000000000000000E+00   0.000000000000000E+00   0.000000000000000E+00
   0.000000000000000E+00   0.000000000000000E+00   0.000000000000000E+00
   0.000000000000000E+00   0.000000000000000E+00   0.000000000000000E+00
   0.000000000000000E+00   0.000000000000000E+00   0.000000000000000E+00
   0.000000000000000E+00   0.000000000000000E+00   0.000000000000000E+00
   0.000000000000000E+00   0.000000000000000E+00   0.000000000000000E+00
   0.000000000000000E+00   0.000000000000000E+00   0.000000000000000E+00
   0.000000000000000E+00   0.000000000000000E+00   0.000000000000000E+00
   0.000000000000000E+00   0.000000000000000E+00   0.000000000000000E+00
   0.000000000000000E+00
      </PP_QIJL.4.4.0>
      <PP_QIJL.4.4.2 first_index="4" second_index="4" composite_index="10" angular_momentum="2" size="1129">
   1.084005308651302E-15   1.139583448107367E-15   1.198011139614741E-15
   1.259434482824018E-15   1.324007068074501E-15   1.391890360449967E-15
   1.463254103525406E-15   1.538276743814299E-15   1.617145876977744E-15
   1.700058716911255E-15   1.787222588882091E-15   1.878855447950316E-15
   1.975186423969854E-15   2.076456394532336E-15   2.182918587286438E-15
   2.294839213138701E-15   2.412498131919330E-15   2.536189552177358E-15
   2.666222766855068E-15   2.802922926681280E-15   2.946631853217271E-15
   3.097708893588504E-15   3.256531819039377E-15   3.423497769557806E-15
   3.599024246931796E-15   3.783550158721003E-15   3.977536915753948E-15
   4.181469585895031E-15   4.395858106966452E-15   4.621238561857990E-15
   4.858174519012921E-15   5.107258441642227E-15   5.369113169190661E-15
   5.644393474759189E-15   5.933787702378221E-15   6.238019488225483E-15
   6.557849570092676E-15   6.894077689625432E-15   7.247544592093114E-15
   7.619134128689088E-15   8.009775466617962E-15   8.420445412496602E-15
   8.852170854878289E-15   9.306031332007736E-15   9.783161731227804E-15
   1.028475512678734E-14   1.081206576314682E-14   1.136641219124115E-14
   1.194918056554194E-14   1.256182811016389E-14   1.320588676268180E-14
   1.388296700477040E-14   1.459476188924491E-14   1.534305127357218E-14
   1.612970627043903E-14   1.695669392650504E-14   1.782608214104082E-14
   1.874004483674969E-14   1.970086739570290E-14   2.071095237398138E-14
   2.177282550931260E-14   2.288914203672584E-14   2.406269332801778E-14
   2.529641387163018E-14   2.659338861039392E-14   2.795686065548604E-14
   2.939023939589023E-14   3.089710902363773E-14   3.248123749614598E-14
   3.414658595806673E-14   3.589731864620076E-14   3.773781330224941E-14
   3.967267211943799E-14   4.170673325038412E-14   4.384508290498741E-14
   4.609306806858888E-14   4.845630987220534E-14   5.094071764826886E-14
   5.355250370701872E-14   5.629819887049499E-14   5.918466880297451E-14
   6.221913117868733E-14   6.540917372973810E-14   6.876277321936406E-14
   7.228831538797168E-14   7.599461592182568E-14   7.989094249682641E-14
   8.398703795249281E-14   8.829314465410002E-14   9.282003010388942E-14
   9.757901386538923E-14   1.025819958681752E-13   1.078414861638439E-13
   1.133706362076049E-13   1.191832717437141E-13   1.252939273769720E-13
   1.317178829167427E-13   1.384712015843643E-13   1.455707701794924E-13
   1.530343413058148E-13   1.608805777617152E-13   1.691290992068972E-13
   1.778005312216485E-13   1.869165568814226E-13   1.964999709757058E-13
   2.065747370067288E-13   2.171660471105697E-13   2.283003850504627E-13
   2.400055924398405E-13   2.523109383606971E-13   2.652471925513457E-13
   2.788467023465920E-13   2.931434735627004E-13   3.081732555294114E-13
   3.239736304816363E-13   3.405841075343407E-13   3.580462214756188E-13
   3.764036366249809E-13   3.957022560165506E-13   4.159903361801944E-13
   4.373186078075775E-13   4.597404026048927E-13   4.833117866494386E-13
   5.080917005835200E-13   5.341421069962178E-13   5.615281453615509E-13
   5.903182949204713E-13   6.205845459139596E-13   6.524025795953977E-13
   6.858519574723494E-13   7.210163202509128E-13   7.579835969801540E-13
   7.968462249195441E-13   8.377013806791989E-13   8.806512232108940E-13
   9.258031492574127E-13   9.732700618990272E-13   1.023170652868586E-12
   1.075629699341119E-12   1.130778375940138E-12   1.188754582740704E-12
   1.249703290089535E-12   1.313776901104313E-12   1.381135632758608E-12
   1.451947916505381E-12   1.526390819440722E-12   1.604650487061033E-12
   1.686922608720708E-12   1.773412906954188E-12   1.864337651885965E-12
   1.959924202014733E-12   2.060411572724007E-12   2.166051033940674E-12
   2.277106738435955E-12   2.393856382339851E-12   2.516591899520562E-12
   2.645620191565316E-12   2.781263895187811E-12   2.923862188981136E-12
   3.073771641533551E-12   3.231367103027605E-12   3.397042642552279E-12
   3.571212533471638E-12   3.754312289313995E-12   3.946799752771852E-12
   4.149156240535302E-12   4.361887746822110E-12   4.585526208613128E-12
   4.820630835757283E-12   5.067789509271842E-12   5.327620251334027E-12
   5.600772770640346E-12   5.887930086996872E-12   6.189810239203379E-12
   6.507168080501572E-12   6.840797166076435E-12   7.191531737331363E-12
   7.560248807897212E-12   7.947870356592474E-12   8.355365632817364E-12
   8.783753580145991E-12   9.234105384177801E-12   9.707547151017484E-12
   1.020526272308204E-11   1.072849663927514E-11   1.127855724693003E-11
   1.185681997330367E-11   1.246473076480017E-11   1.310380970252483E-11
   1.377565480320830E-11   1.448194601500440E-11   1.522444941815436E-11
   1.600502164101847E-11   1.682561450251926E-11   1.768827989260311E-11
   1.859517490292277E-11   1.954856722057183E-11   2.055084079835452E-11
   2.160450181577137E-11   2.271218494562456E-11   2.387665994191056E-11
   2.510083856547569E-11   2.638778186474719E-11   2.774070782974773E-11
   2.916299943852994E-11   3.065821311614877E-11   3.223008762732568E-11
   3.388255342503520E-11   3.561974247839181E-11   3.744599860440997E-11
   3.936588832946736E-11   4.138421230763441E-11   4.350601732441311E-11
   4.573660891590381E-11   4.808156463495019E-11   5.054674799742965E-11
   5.313832314356563E-11   5.586277025091173E-11   5.872690173755152E-11
   6.173787929602437E-11   6.490323180056451E-11   6.823087413243451E-11
   7.172912697041147E-11   7.540673759591659E-11   7.927290176480362E-11
   8.333728670048670E-11   8.761005526590819E-11   9.210189137476902E-11
   9.682402670556522E-11   1.017882687852216E-10   1.070070305125295E-10
   1.124933611952207E-10   1.182609791782574E-10   1.243243061449309E-10
   1.306985031765253E-10   1.373995086606931E-10   1.444440781433402E-10
   1.518498262236350E-10   1.596352705969033E-10   1.678198783555192E-10
   1.764241146635396E-10   1.854694939268026E-10   1.949786335863893E-10
   2.049753106699668E-10   2.154845212423836E-10   2.265325429041512E-10
   2.381470004940714E-10   2.503569351602600E-10   2.631928769722622E-10
   2.766869212557882E-10   2.908728088409049E-10   3.057860104243227E-10
   3.214638152566654E-10   3.379454243764621E-10   3.552720486239351E-10
   3.734870116796166E-10   3.926358583854006E-10   4.127664686188085E-10
   4.339291770051704E-10   4.561768987669818E-10   4.795652620250451E-10
   5.041527468821539E-10   5.300008316369928E-10   5.571741464937841E-10
   5.857406351519322E-10   6.157717246795994E-10   6.473425040958927E-10
   6.805319121080519E-10   7.154229344729716E-10   7.521028114763967E-10
   7.906632560484362E-10   8.312006830606459E-10   8.738164503778250E-10
   9.186171122671128E-10   9.657146857978017E-10   1.015226930897781E-09
   1.067277644766656E-09   1.121996971381432E-09   1.179521726868425E-09
   1.239995741554687E-09   1.303570219553862E-09   1.370404116785349E-09
   1.440664538371525E-09   1.514527156406380E-09   1.592176649139724E-09
   1.673807162674616E-09   1.759622796332071E-09   1.849838112896010E-09
   1.944678675013820E-09   2.044381609093107E-09   2.149196198103896E-09
   2.259384504767962E-09   2.375222026692580E-09   2.496998385086135E-09
   2.625018048776679E-09   2.759601095342809E-09   2.901084011259055E-09
   3.049820533055213E-09   3.206182531591786E-09   3.370560941661201E-09
   3.543366739237754E-09   3.725031968818373E-09   3.916010823421191E-09
   4.116780779940725E-09   4.327843792696517E-09   4.549727548157481E-09
   4.782986783977182E-09   5.028204675635580E-09   5.285994294151956E-09
   5.557000138511013E-09   5.841899746630745E-09   6.141405388897028E-09
   6.456265848495750E-09   6.787268292990302E-09   7.135240241820098E-09
   7.501051634634944E-09   7.885617004834211E-09   8.289897769800862E-09
   8.714904622935052E-09   9.161700078739710E-09   9.631401094545059E-09
   1.012518191617673E-08   1.064427695197383E-08   1.118998389619551E-08
   1.176366697569596E-08   1.236676032058564E-08   1.300077159389239E-08
   1.366728573264260E-08   1.436796891118782E-08   1.510457271882466E-08
   1.587893851185097E-08   1.669300204450550E-08   1.754879828510600E-08
   1.844846650774893E-08   1.939425564117932E-08   2.038852987922930E-08
   2.143377459492666E-08   2.253260255869296E-08   2.368776044917121E-08
   2.490213572271033E-08   2.617876382622633E-08   2.752083578687242E-08
   2.893170623962828E-08   3.041490161875051E-08   3.197412920985044E-08
   3.361328624358806E-08   3.533646975457715E-08   3.714798670118510E-08
   3.905236476534141E-08   4.105436368107227E-08   4.315898712990382E-08
   4.537149524350074E-08   4.769741767087917E-08   5.014256744297930E-08
   5.271305557002231E-08   5.541530613686154E-08   5.825607242043685E-08
   6.124245388557945E-08   6.438191370658062E-08   6.768229750651954E-08
   7.115185296570120E-08   7.479925042572531E-08   7.863360436704944E-08
   8.266449645979625E-08   8.690199926848999E-08   9.135670145688683E-08
   9.603973422765092E-08   1.009627991952506E-07   1.061381973731060E-07
   1.115788601538180E-07   1.172983814826280E-07   1.233110516229319E-07
   1.296318931123651E-07   1.362766980460702E-07   1.432620675808845E-07
   1.506054533711165E-07   1.583252011270313E-07   1.664405962146280E-07
   1.749719120482350E-07   1.839404606632944E-07   1.933686454503778E-07
   2.032800177641278E-07   2.136993350568596E-07   2.246526229870240E-07
   2.361672400753194E-07   2.482719463034760E-07   2.609969745238557E-07
   2.743741059869925E-07   2.884367496150200E-07   3.032200253217214E-07
   3.187608513825044E-07   3.350980368483608E-07   3.522723779269720E-07
   3.703267600035601E-07   3.893062642805314E-07   4.092582803156833E-07
   4.302326240210785E-07   4.522816619509107E-07   4.754604415672434E-07
   4.998268286555357E-07   5.254416514204092E-07   5.523688517637306E-07
   5.806756449511696E-07   6.104326868658981E-07   6.417142498941194E-07
   6.745984079738648E-07   7.091672310576223E-07   7.455069891883542E-07
   7.837083675829592E-07   8.238666922347603E-07   8.660821671212268E-07
   9.104601235676092E-07   9.571112824385674E-07   1.006152029466952E-06
   1.057704705041679E-06   1.111897908082450E-06   1.168866816348650E-06
   1.228753522155089E-06   1.291707385970971E-06   1.357885407630939E-06
   1.427452616400714E-06   1.500582481311062E-06   1.577457342159786E-06
   1.658268862357586E-06   1.743218505358376E-06   1.832518034650864E-06
   1.926390039731445E-06   2.025068488779777E-06   2.128799309516837E-06
   2.237840999205992E-06   2.352465266428298E-06   2.472957705022731E-06
   2.599618502325342E-06   2.732763183725079E-06   2.872723395051965E-06
   3.019847724360120E-06   3.174502565974819E-06   3.337073028343142E-06
   3.507963887738741E-06   3.687600591064446E-06   3.876430308765122E-06
   4.074923042043089E-06   4.283572785578486E-06   4.502898750084753E-06
   4.733446645781251E-06   4.975790032543790E-06   5.230531737050750E-06
   5.498305342545042E-06   5.779776754253172E-06   6.075645843680493E-06
   6.386648176583008E-06   6.713556828567052E-06   7.057184291910924E-06
   7.418384480099838E-06   7.798054832541531E-06   8.197138526993892E-06
   8.616626802801606E-06   9.057561402415244E-06   9.521037135555248E-06
   1.000820457394055E-05   1.052027288078043E-05   1.105851278470271E-05
   1.162425970177786E-05   1.221891701712275E-05   1.284395953048857E-05
   1.350093707606416E-05   1.419147832424521E-05   1.491729477588457E-05
   1.568018495589032E-05   1.648203881943967E-05   1.732484237853014E-05
   1.821068256182485E-05   1.914175231821508E-05   2.012035597643253E-05
   2.114891487391694E-05   2.222997326810201E-05   2.336620454337330E-05
   2.456041772921768E-05   2.581556434476968E-05   2.713474558557950E-05
   2.852121986968712E-05   2.997841076076298E-05   3.150991528660494E-05
   3.311951267305992E-05   3.481117351284114E-05   3.658906939137112E-05
   3.845758299208270E-05   4.042131870378630E-05   4.248511375554075E-05
   4.465404990477675E-05   4.693346570433954E-05   4.932896937910472E-05
   5.184645233925459E-05   5.449210336264783E-05   5.727242347840370E-05
   6.019424158525418E-05   6.326473084131559E-05   6.649142586041747E-05
   6.988224075650465E-05   7.344548807455623E-05   7.718989865198355E-05
   8.112464245484368E-05   8.525935043494706E-05   8.960413745703877E-05
   9.416962634755703E-05   9.896697311680278E-05   1.040078934122339E-04
   1.093046902586844E-04   1.148702831489816E-04   1.207182385465035E-04
   1.268628018667525E-04   1.333189310079898E-04   1.401023315017999E-04
   1.472294933608940E-04   1.547177297018401E-04   1.625852172254739E-04
   1.708510386410176E-04   1.795352271229807E-04   1.886588128952883E-04
   1.982438720387458E-04   2.083135776246818E-04   2.188922532788475E-04
   2.300054292882067E-04   2.416799013624653E-04   2.539437921725239E-04
   2.668266157883388E-04   2.803593451459780E-04   2.945744826794652E-04
   3.095061342551930E-04   3.251900865568424E-04   3.416638880694268E-04
   3.589669338209735E-04   3.771405540442024E-04   3.962281069269919E-04
   4.162750756265425E-04   4.373291697298464E-04   4.594404313483315E-04
   4.826613460405647E-04   5.070469587672077E-04   5.326549950836626E-04
   5.595459877897233E-04   5.877834092566157E-04   6.174338096627042E-04
   6.485669613755801E-04   6.812560097250891E-04   7.155776304201009E-04
   7.516121938680988E-04   7.894439366658704E-04   8.291611405350407E-04
   8.708563189849374E-04   9.146264119915602E-04   9.605729889893903E-04
   1.008802460478152E-03   1.059426298556160E-03   1.112561266693998E-03
   1.168329659072958E-03   1.226859549814672E-03   1.288285052435751E-03
   1.352746589864972E-03   1.420391175364786E-03   1.491372704702189E-03
   1.565852259917025E-03   1.643998425036736E-03   1.725987614087938E-03
   1.812004411754498E-03   1.902241927029287E-03   1.996902160205796E-03
   2.096196383548042E-03   2.200345535974690E-03   2.309580632080988E-03
   2.424143185815160E-03   2.544285649111965E-03   2.670271865770603E-03
   2.802377540846972E-03   2.940890725811041E-03   3.086112319692159E-03
   3.238356586412409E-03   3.397951688473871E-03   3.565240237130267E-03
   3.740579859135244E-03   3.924343780113491E-03   4.116921424550890E-03
   4.318719032345247E-03   4.530160291795988E-03   4.751686988844386E-03
   4.983759672299588E-03   5.226858334703805E-03   5.481483108397476E-03
   5.748154976248031E-03   6.027416496395230E-03   6.319832540248090E-03
   6.625991042839801E-03   6.946503764505126E-03   7.282007062695458E-03
   7.633162672578383E-03   8.000658494893858E-03   8.385209389343810E-03
   8.787557971587869E-03   9.208475411691720E-03   9.648762231638065E-03
   1.010924909925045E-02   1.059079761560771E-02   1.109430109272927E-02
   1.162068531799960E-02   1.217090930146344E-02   1.274596600176621E-02
   1.334688302613470E-02   1.397472329938941E-02   1.463058569655350E-02
   1.531560563317016E-02   1.603095560696282E-02   1.677784568397020E-02
   1.755752392175457E-02   1.837127672172969E-02   1.922042910206503E-02
   2.010634488201584E-02   2.103042676788858E-02   2.199411633018465E-02
   2.299889386077775E-02   2.404627809825996E-02   2.513782580885332E-02
   2.627513120951963E-02   2.745982521911639E-02   2.869357452264588E-02
   2.997808043282472E-02   3.131507753237053E-02   3.270633207956530E-02
   3.415364015880814E-02   3.565882555703277E-02   3.722373734602782E-02
   3.885024714987787E-02   4.054024607594717E-02   4.229564128705616E-02
   4.411835219177923E-02   4.601030622911125E-02   4.797343422314126E-02
   5.000966528283655E-02   5.212092122159466E-02   5.430911047089008E-02
   5.657612146212947E-02   5.892381545076778E-02   6.135401875684290E-02
   6.386851439637220E-02   6.646903307857444E-02   6.915724354461331E-02
   7.193474222458622E-02   7.480304219080039E-02   7.776356138701254E-02
   8.081761011534366E-02   8.396637776497393E-02   8.721091876959064E-02
   9.055213778389368E-02   9.399077407329598E-02   9.752738511538922E-02
   1.011623294167296E-01   1.048957485541641E-01   1.087275484562602E-01
   1.126573799474453E-01   1.166846185853302E-01   1.208083438302990E-01
   1.250273175959551E-01   1.293399622393764E-01   1.337443380613766E-01
   1.382381203991975E-01   1.428185764071613E-01   1.474825416349161E-01
   1.522263965279381E-01   1.570460429908917E-01   1.619368811713445E-01
   1.668937866390111E-01   1.719110881542270E-01   1.769825462385714E-01
   1.821013327803385E-01   1.872600119278800E-01   1.924505225443843E-01
   1.976641625183791E-01   2.028915752448322E-01   2.081227386119026E-01
   2.133469568479706E-01   2.185528556020344E-01   2.237283806476933E-01
   2.288608006161862E-01   2.339367141768573E-01   2.389420620935463E-01
   2.438621445920005E-01   2.486816444760317E-01   2.533846564280152E-01
   2.579547229217445E-01   2.623748771619587E-01   2.666276934441282E-01
   2.706953452996581E-01   2.745596717546485E-01   2.782022519839381E-01
   2.816044885856200E-01   2.847476996337083E-01   2.876132195875440E-01
   2.901825090451916E-01   2.924372732240036E-01   2.943595889344087E-01
   2.959320396825567E-01   2.971378583938812E-01   2.979610770931426E-01
   2.983866827077663E-01   2.984007779812590E-01   2.979907462935451E-01
   2.971454189870636E-01   2.958552435937464E-01   2.941124511514323E-01
   2.919112205923652E-01   2.892478379852336E-01   2.861208482205189E-01
   2.825311965520820E-01   2.784823572520143E-01   2.739804465074268E-01
   2.690343165943172E-01   2.636556283126225E-01   2.578588986660806E-01
   2.516615208289675E-01   2.450837535672590E-01   2.381486774825330E-01
   2.308821157302874E-01   2.233125172369804E-01   2.154708009073007E-01
   2.073901598782662E-01   1.991058255411180E-01   1.906547918137014E-01
   1.820755010000155E-01   1.734074935106240E-01   1.646910247234345E-01
   1.559666533198859E-01   1.472748065113749E-01   1.386553286434443E-01
   1.301470206927435E-01   1.217871791091151E-01   1.136111432513236E-01
   1.056518612623855E-01   9.793948456703425E-02   9.050100118352371E-02
   8.335991765699154E-02   7.653599857550114E-02   7.004507126005199E-02
   6.389890127246134E-02   5.810514181931900E-02   5.266735692426124E-02
   4.758511439818544E-02   4.285414019309169E-02   3.846652075522403E-02
   3.441093461911176E-02   3.067288888219335E-02   2.723493060710942E-02
   2.407679791827344E-02   2.117547096310056E-02   1.850903232785645E-02
   1.606896212258430E-02   1.384932811702785E-02   1.184304597771979E-02
   1.004195305875913E-02   8.436895965641289E-03   7.017831310919390E-03
   5.773938810263779E-03   4.693745589251910E-03   3.765260290520878E-03
   2.976115294135648E-03   2.313715098314378E-03   1.765388659362335E-03
   1.318542946227158E-03   9.608147293613117E-04   6.802198675115029E-04
   4.652975426762962E-04   3.052424535272061E-04   1.900250461996586E-04
   1.104964001286540E-04   5.847503950896088E-05   2.681319709535446E-05
   9.440235305635536E-06   1.381222861480957E-06  -1.251013949682411E-06
  -1.291694394139897E-06  -5.886968834287187E-07  -9.655321196039290E-08
   0.000000000000000E+00   0.000000000000000E+00   0.000000000000000E+00
   0.000000000000000E+00   0.000000000000000E+00   0.000000000000000E+00
   0.000000000000000E+00   0.000000000000000E+00   0.000000000000000E+00
   0.000000000000000E+00   0.000000000000000E+00   0.000000000000000E+00
   0.000000000000000E+00   0.000000000000000E+00   0.000000000000000E+00
   0.000000000000000E+00   0.000000000000000E+00   0.000000000000000E+00
   0.000000000000000E+00   0.000000000000000E+00   0.000000000000000E+00
   0.000000000000000E+00   0.000000000000000E+00   0.000000000000000E+00
   0.000000000000000E+00   0.000000000000000E+00   0.000000000000000E+00
   0.000000000000000E+00   0.000000000000000E+00   0.000000000000000E+00
   0.000000000000000E+00   0.000000000000000E+00   0.000000000000000E+00
   0.000000000000000E+00   0.000000000000000E+00   0.000000000000000E+00
   0.000000000000000E+00   0.000000000000000E+00   0.000000000000000E+00
   0.000000000000000E+00   0.000000000000000E+00   0.000000000000000E+00
   0.000000000000000E+00   0.000000000000000E+00   0.000000000000000E+00
   0.000000000000000E+00   0.000000000000000E+00   0.000000000000000E+00
   0.000000000000000E+00   0.000000000000000E+00   0.000000000000000E+00
   0.000000000000000E+00   0.000000000000000E+00   0.000000000000000E+00
   0.000000000000000E+00   0.000000000000000E+00   0.000000000000000E+00
   0.000000000000000E+00   0.000000000000000E+00   0.000000000000000E+00
   0.000000000000000E+00   0.000000000000000E+00   0.000000000000000E+00
   0.000000000000000E+00   0.000000000000000E+00   0.000000000000000E+00
   0.000000000000000E+00   0.000000000000000E+00   0.000000000000000E+00
   0.000000000000000E+00   0.000000000000000E+00   0.000000000000000E+00
   0.000000000000000E+00   0.000000000000000E+00   0.000000000000000E+00
   0.000000000000000E+00   0.000000000000000E+00   0.000000000000000E+00
   0.000000000000000E+00   0.000000000000000E+00   0.000000000000000E+00
   0.000000000000000E+00   0.000000000000000E+00   0.000000000000000E+00
   0.000000000000000E+00   0.000000000000000E+00   0.000000000000000E+00
   0.000000000000000E+00   0.000000000000000E+00   0.000000000000000E+00
   0.000000000000000E+00   0.000000000000000E+00   0.000000000000000E+00
   0.000000000000000E+00   0.000000000000000E+00   0.000000000000000E+00
   0.000000000000000E+00   0.000000000000000E+00   0.000000000000000E+00
   0.000000000000000E+00   0.000000000000000E+00   0.000000000000000E+00
   0.000000000000000E+00   0.000000000000000E+00   0.000000000000000E+00
   0.000000000000000E+00   0.000000000000000E+00   0.000000000000000E+00
   0.000000000000000E+00   0.000000000000000E+00   0.000000000000000E+00
   0.000000000000000E+00   0.000000000000000E+00   0.000000000000000E+00
   0.000000000000000E+00   0.000000000000000E+00   0.000000000000000E+00
   0.000000000000000E+00   0.000000000000000E+00   0.000000000000000E+00
   0.000000000000000E+00   0.000000000000000E+00   0.000000000000000E+00
   0.000000000000000E+00   0.000000000000000E+00   0.000000000000000E+00
   0.000000000000000E+00   0.000000000000000E+00   0.000000000000000E+00
   0.000000000000000E+00   0.000000000000000E+00   0.000000000000000E+00
   0.000000000000000E+00   0.000000000000000E+00   0.000000000000000E+00
   0.000000000000000E+00   0.000000000000000E+00   0.000000000000000E+00
   0.000000000000000E+00   0.000000000000000E+00   0.000000000000000E+00
   0.000000000000000E+00   0.000000000000000E+00   0.000000000000000E+00
   0.000000000000000E+00   0.000000000000000E+00   0.000000000000000E+00
   0.000000000000000E+00   0.000000000000000E+00   0.000000000000000E+00
   0.000000000000000E+00   0.000000000000000E+00   0.000000000000000E+00
   0.000000000000000E+00   0.000000000000000E+00   0.000000000000000E+00
   0.000000000000000E+00   0.000000000000000E+00   0.000000000000000E+00
   0.000000000000000E+00   0.000000000000000E+00   0.000000000000000E+00
   0.000000000000000E+00   0.000000000000000E+00   0.000000000000000E+00
   0.000000000000000E+00   0.000000000000000E+00   0.000000000000000E+00
   0.000000000000000E+00   0.000000000000000E+00   0.000000000000000E+00
   0.000000000000000E+00   0.000000000000000E+00   0.000000000000000E+00
   0.000000000000000E+00   0.000000000000000E+00   0.000000000000000E+00
   0.000000000000000E+00   0.000000000000000E+00   0.000000000000000E+00
   0.000000000000000E+00   0.000000000000000E+00   0.000000000000000E+00
   0.000000000000000E+00   0.000000000000000E+00   0.000000000000000E+00
   0.000000000000000E+00   0.000000000000000E+00   0.000000000000000E+00
   0.000000000000000E+00   0.000000000000000E+00   0.000000000000000E+00
   0.000000000000000E+00   0.000000000000000E+00   0.000000000000000E+00
   0.000000000000000E+00   0.000000000000000E+00   0.000000000000000E+00
   0.000000000000000E+00   0.000000000000000E+00   0.000000000000000E+00
   0.000000000000000E+00   0.000000000000000E+00   0.000000000000000E+00
   0.000000000000000E+00   0.000000000000000E+00   0.000000000000000E+00
   0.000000000000000E+00   0.000000000000000E+00   0.000000000000000E+00
   0.000000000000000E+00   0.000000000000000E+00   0.000000000000000E+00
   0.000000000000000E+00   0.000000000000000E+00   0.000000000000000E+00
   0.000000000000000E+00   0.000000000000000E+00   0.000000000000000E+00
   0.000000000000000E+00   0.000000000000000E+00   0.000000000000000E+00
   0.000000000000000E+00   0.000000000000000E+00   0.000000000000000E+00
   0.000000000000000E+00   0.000000000000000E+00   0.000000000000000E+00
   0.000000000000000E+00   0.000000000000000E+00   0.000000000000000E+00
   0.000000000000000E+00   0.000000000000000E+00   0.000000000000000E+00
   0.000000000000000E+00   0.000000000000000E+00   0.000000000000000E+00
   0.000000000000000E+00   0.000000000000000E+00   0.000000000000000E+00
   0.000000000000000E+00   0.000000000000000E+00   0.000000000000000E+00
   0.000000000000000E+00   0.000000000000000E+00   0.000000000000000E+00
   0.000000000000000E+00   0.000000000000000E+00   0.000000000000000E+00
   0.000000000000000E+00   0.000000000000000E+00   0.000000000000000E+00
   0.000000000000000E+00   0.000000000000000E+00   0.000000000000000E+00
   0.000000000000000E+00   0.000000000000000E+00   0.000000000000000E+00
   0.000000000000000E+00   0.000000000000000E+00   0.000000000000000E+00
   0.000000000000000E+00   0.000000000000000E+00   0.000000000000000E+00
   0.000000000000000E+00   0.000000000000000E+00   0.000000000000000E+00
   0.000000000000000E+00   0.000000000000000E+00   0.000000000000000E+00
   0.000000000000000E+00   0.000000000000000E+00   0.000000000000000E+00
   0.000000000000000E+00   0.000000000000000E+00   0.000000000000000E+00
   0.000000000000000E+00   0.000000000000000E+00   0.000000000000000E+00
   0.000000000000000E+00   0.000000000000000E+00   0.000000000000000E+00
   0.000000000000000E+00   0.000000000000000E+00   0.000000000000000E+00
   0.000000000000000E+00   0.000000000000000E+00   0.000000000000000E+00
   0.000000000000000E+00   0.000000000000000E+00   0.000000000000000E+00
   0.000000000000000E+00   0.000000000000000E+00   0.000000000000000E+00
   0.000000000000000E+00   0.000000000000000E+00   0.000000000000000E+00
   0.000000000000000E+00   0.000000000000000E+00   0.000000000000000E+00
   0.000000000000000E+00   0.000000000000000E+00   0.000000000000000E+00
   0.000000000000000E+00   0.000000000000000E+00   0.000000000000000E+00
   0.000000000000000E+00   0.000000000000000E+00   0.000000000000000E+00
   0.000000000000000E+00   0.000000000000000E+00   0.000000000000000E+00
   0.000000000000000E+00   0.000000000000000E+00   0.000000000000000E+00
   0.000000000000000E+00   0.000000000000000E+00   0.000000000000000E+00
   0.000000000000000E+00   0.000000000000000E+00   0.000000000000000E+00
   0.000000000000000E+00   0.000000000000000E+00   0.000000000000000E+00
   0.000000000000000E+00   0.000000000000000E+00   0.000000000000000E+00
   0.000000000000000E+00   0.000000000000000E+00   0.000000000000000E+00
   0.000000000000000E+00   0.000000000000000E+00   0.000000000000000E+00
   0.000000000000000E+00   0.000000000000000E+00   0.000000000000000E+00
   0.000000000000000E+00   0.000000000000000E+00   0.000000000000000E+00
   0.000000000000000E+00   0.000000000000000E+00   0.000000000000000E+00
   0.000000000000000E+00   0.000000000000000E+00   0.000000000000000E+00
   0.000000000000000E+00   0.000000000000000E+00   0.000000000000000E+00
   0.000000000000000E+00
      </PP_QIJL.4.4.2>
    </PP_AUGMENTATION>
  </PP_NONLOCAL>
  <PP_PSWFC>
    <PP_CHI.1 size="1129" index="1" label="2S" l="0" occupation="2.0000000000000000" n="1" cutoff_radius="0.69999999999999996" ultrasoft_cutoff_radius="1.3999999999999999">
   1.857922223237169E-04   1.881292007566712E-04   1.904955747583665E-04
   1.928917140794928E-04   1.953179931216295E-04   1.977747909957461E-04
   2.002624915814391E-04   2.027814835869139E-04   2.053321606097212E-04
   2.079149211982575E-04   2.105301689140382E-04   2.131783123947558E-04
   2.158597654181296E-04   2.185749469665592E-04   2.213242812925919E-04
   2.241081979852119E-04   2.269271320369652E-04   2.297815239119269E-04
   2.326718196145258E-04   2.355984707592324E-04   2.385619346411247E-04
   2.415626743073409E-04   2.446011586294322E-04   2.476778623766240E-04
   2.507932662899998E-04   2.539478571576169E-04   2.571421278905694E-04
   2.603765776000045E-04   2.636517116751111E-04   2.669680418620871E-04
   2.703260863440996E-04   2.737263698222531E-04   2.771694235975742E-04
   2.806557856540286E-04   2.841860007425819E-04   2.877606204663176E-04
   2.913802033666252E-04   2.950453150104741E-04   2.987565280787839E-04
   3.025144224559075E-04   3.063195853202369E-04   3.101726112359530E-04
   3.140741022459249E-04   3.180246679657818E-04   3.220249256791656E-04
   3.260755004341817E-04   3.301770251410641E-04   3.343301406710691E-04
   3.385354959566111E-04   3.427937480926602E-04   3.471055624394134E-04
   3.514716127262583E-04   3.558925811570438E-04   3.603691585166758E-04
   3.649020442790534E-04   3.694919467163617E-04   3.741395830097402E-04
   3.788456793613439E-04   3.836109711078125E-04   3.884362028351689E-04
   3.933221284951600E-04   3.982695115230628E-04   4.032791249569715E-04
   4.083517515585862E-04   4.134881839355218E-04   4.186892246651500E-04
   4.239556864200054E-04   4.292883920947662E-04   4.346881749348311E-04
   4.401558786665162E-04   4.456923576288846E-04   4.512984769072411E-04
   4.569751124683009E-04   4.627231512970598E-04   4.685434915353885E-04
   4.744370426223636E-04   4.804047254363714E-04   4.864474724389947E-04
   4.925662278207101E-04   4.987619476484190E-04   5.050356000148323E-04
   5.113881651897363E-04   5.178206357731598E-04   5.243340168504676E-04
   5.309293261494076E-04   5.376075941991275E-04   5.443698644911988E-04
   5.512171936426591E-04   5.581506515611111E-04   5.651713216118961E-04
   5.722803007873670E-04   5.794786998782965E-04   5.867676436474349E-04
   5.941482710052559E-04   6.016217351879124E-04   6.091892039374266E-04
   6.168518596841510E-04   6.246108997315223E-04   6.324675364431392E-04
   6.404229974321950E-04   6.484785257532904E-04   6.566353800966578E-04
   6.648948349848344E-04   6.732581809718029E-04   6.817267248446424E-04
   6.903017898277103E-04   6.989847157893931E-04   7.077768594514637E-04
   7.166795946010631E-04   7.256943123053586E-04   7.348224211288906E-04
   7.440653473536613E-04   7.534245352019872E-04   7.629014470621594E-04
   7.724975637169421E-04   7.822143845749324E-04   7.920534279048492E-04
   8.020162310727556E-04   8.121043507822721E-04   8.223193633178059E-04
   8.326628647908392E-04   8.431364713893245E-04   8.537418196302044E-04
   8.644805666151121E-04   8.753543902892977E-04   8.863649897037909E-04
   8.975140852808844E-04   9.088034190829344E-04   9.202347550845564E-04
   9.318098794482408E-04   9.435306008034333E-04   9.553987505291300E-04
   9.674161830400183E-04   9.795847760762225E-04   9.919064309966989E-04
   1.004383073076310E-03   1.017016651806639E-03   1.029809141200598E-03
   1.042762540100843E-03   1.055878872492100E-03   1.069160187817390E-03
   1.082608561298248E-03   1.096226094258965E-03   1.110014914454908E-03
   1.123977176404972E-03   1.138115061728208E-03   1.152430779484687E-03
   1.166926566520653E-03   1.181604687818012E-03   1.196467436848227E-03
   1.211517135930648E-03   1.226756136595364E-03   1.242186819950608E-03
   1.257811597054787E-03   1.273632909293198E-03   1.289653228759462E-03
   1.305875058641777E-03   1.322300933614011E-03   1.338933420231729E-03
   1.355775117333189E-03   1.372828656445387E-03   1.390096702195210E-03
   1.407581952725750E-03   1.425287140117863E-03   1.443215030817033E-03
   1.461368426065583E-03   1.479750162340359E-03   1.498363111795872E-03
   1.517210182713050E-03   1.536294319953624E-03   1.555618505420209E-03
   1.575185758522207E-03   1.594999136647530E-03   1.615061735640285E-03
   1.635376690284449E-03   1.655947174793631E-03   1.676776403307000E-03
   1.697867630391433E-03   1.719224151550004E-03   1.740849303736840E-03
   1.762746465878454E-03   1.784919059401666E-03   1.807370548768118E-03
   1.830104442015535E-03   1.853124291305800E-03   1.876433693479891E-03
   1.900036290619834E-03   1.923935770617688E-03   1.948135867751697E-03
   1.972640363269708E-03   1.997453085979869E-03   2.022577912848832E-03
   2.048018769607406E-03   2.073779631363864E-03   2.099864523224968E-03
   2.126277520924758E-03   2.153022751461308E-03   2.180104393741437E-03
   2.207526679233544E-03   2.235293892628667E-03   2.263410372509814E-03
   2.291880512029763E-03   2.320708759597333E-03   2.349899619572314E-03
   2.379457652969122E-03   2.409387478169305E-03   2.439693771642998E-03
   2.470381268679457E-03   2.501454764126771E-03   2.532919113140890E-03
   2.564779231944029E-03   2.597040098592654E-03   2.629706753755091E-03
   2.662784301498914E-03   2.696277910088261E-03   2.730192812791102E-03
   2.764534308696743E-03   2.799307763543537E-03   2.834518610557033E-03
   2.870172351298650E-03   2.906274556525004E-03   2.942830867058081E-03
   2.979846994666285E-03   3.017328722956607E-03   3.055281908277998E-03
   3.093712480636061E-03   3.132626444619293E-03   3.172029880336925E-03
   3.211928944368559E-03   3.252329870725768E-03   3.293238971825708E-03
   3.334662639477050E-03   3.376607345878242E-03   3.419079644628336E-03
   3.462086171750527E-03   3.505633646728506E-03   3.549728873555904E-03
   3.594378741798862E-03   3.639590227671988E-03   3.685370395127808E-03
   3.731726396959906E-03   3.778665475919946E-03   3.826194965848696E-03
   3.874322292821268E-03   3.923054976306762E-03   3.972400630342448E-03
   4.022366964722732E-03   4.072961786202998E-03   4.124192999718629E-03
   4.176068609619326E-03   4.228596720918887E-03   4.281785540560728E-03
   4.335643378699271E-03   4.390178649997423E-03   4.445399874940362E-03
   4.501315681165800E-03   4.557934804810965E-03   4.615266091876485E-03
   4.673318499607383E-03   4.732101097891434E-03   4.791623070675042E-03
   4.851893717396946E-03   4.912922454439827E-03   4.974718816600235E-03
   5.037292458576902E-03   5.100653156477761E-03   5.164810809345857E-03
   5.229775440704407E-03   5.295557200121239E-03   5.362166364792901E-03
   5.429613341148584E-03   5.497908666474240E-03   5.567063010556959E-03
   5.637087177350115E-03   5.707992106659259E-03   5.779788875849260E-03
   5.852488701572781E-03   5.926102941520480E-03   6.000643096193106E-03
   6.076120810695893E-03   6.152547876555340E-03   6.229936233558843E-03
   6.308297971617362E-03   6.387645332651415E-03   6.467990712500764E-03
   6.549346662857952E-03   6.631725893226129E-03   6.715141272901369E-03
   6.799605832979803E-03   6.885132768389976E-03   6.971735439950540E-03
   7.059427376453830E-03   7.148222276775432E-03   7.238134012010233E-03
   7.329176627635171E-03   7.421364345699064E-03   7.514711567039868E-03
   7.609232873529636E-03   7.704943030347609E-03   7.801856988281712E-03
   7.899989886058846E-03   7.999357052704374E-03   8.099974009930991E-03
   8.201856474557626E-03   8.305020360958468E-03   8.409481783542580E-03
   8.515257059264631E-03   8.622362710166890E-03   8.730815465953015E-03
   8.840632266593968E-03   8.951830264966506E-03   9.064426829524581E-03
   9.178439547004157E-03   9.293886225161710E-03   9.410784895546942E-03
   9.529153816310084E-03   9.649011475044218E-03   9.770376591663025E-03
   9.893268121314450E-03   1.001770525733067E-02   1.014370743421484E-02
   1.027129433066499E-02   1.040048587263575E-02   1.053130223643797E-02
   1.066376385187713E-02   1.079789140543082E-02   1.093370584346554E-02
   1.107122837549376E-02   1.121048047747139E-02   1.135148389513624E-02
   1.149426064738802E-02   1.163883302971029E-02   1.178522361763496E-02
   1.193345527024978E-02   1.208355113374942E-02   1.223553464503058E-02
   1.238942953533165E-02   1.254525983391772E-02   1.270304987181092E-02
   1.286282428556733E-02   1.302460802110056E-02   1.318842633755255E-02
   1.335430481121241E-02   1.352226933948376E-02   1.369234614490103E-02
   1.386456177919559E-02   1.403894312741190E-02   1.421551741207464E-02
   1.439431219740723E-02   1.457535539360245E-02   1.475867526114569E-02
   1.494430041519149E-02   1.513225982999406E-02   1.532258284339220E-02
   1.551529916134963E-02   1.571043886255107E-02   1.590803240305461E-02
   1.610811062100169E-02   1.631070474138447E-02   1.651584638087192E-02
   1.672356755269513E-02   1.693390067159228E-02   1.714687855881434E-02
   1.736253444719205E-02   1.758090198626458E-02   1.780201524747130E-02
   1.802590872940654E-02   1.825261736313875E-02   1.848217651759434E-02
   1.871462200500704E-02   1.894999008643394E-02   1.918831747733819E-02
   1.942964135323972E-02   1.967399935543467E-02   1.992142959678385E-02
   2.017197066757176E-02   2.042566164143609E-02   2.068254208136928E-02
   2.094265204579238E-02   2.120603209470225E-02   2.147272329589282E-02
   2.174276723125142E-02   2.201620600313051E-02   2.229308224079620E-02
   2.257343910695413E-02   2.285732030435330E-02   2.314477008246933E-02
   2.343583324426710E-02   2.373055515304455E-02   2.402898173935767E-02
   2.433115950802822E-02   2.463713554523449E-02   2.494695752568623E-02
   2.526067371988475E-02   2.557833300146858E-02   2.589998485464613E-02
   2.622567938171587E-02   2.655546731067493E-02   2.688940000291709E-02
   2.722752946102122E-02   2.756990833663049E-02   2.791658993842401E-02
   2.826762824018092E-02   2.862307788893882E-02   2.898299421324627E-02
   2.934743323151143E-02   2.971645166044678E-02   3.009010692361128E-02
   3.046845716005082E-02   3.085156123303781E-02   3.123947873891063E-02
   3.163227001601421E-02   3.202999615374176E-02   3.243271900167998E-02
   3.284050117885719E-02   3.325340608309573E-02   3.367149790047016E-02
   3.409484161487077E-02   3.452350301767471E-02   3.495754871752408E-02
   3.539704615021330E-02   3.584206358868548E-02   3.629267015313879E-02
   3.674893582124424E-02   3.721093143847500E-02   3.767872872854800E-02
   3.815240030397930E-02   3.863201967675279E-02   3.911766126910418E-02
   3.960940042442033E-02   4.010731341825411E-02   4.061147746945707E-02
   4.112197075142819E-02   4.163887240348186E-02   4.216226254233350E-02
   4.269222227370504E-02   4.322883370404983E-02   4.377217995239743E-02
   4.432234516231952E-02   4.487941451401681E-02   4.544347423652725E-02
   4.601461162005644E-02   4.659291502842989E-02   4.717847391166800E-02
   4.777137881868359E-02   4.837172141010277E-02   4.897959447120822E-02
   4.959509192500617E-02   5.021830884541630E-02   5.084934147058492E-02
   5.148828721632115E-02   5.213524468965627E-02   5.279031370252558E-02
   5.345359528557276E-02   5.412519170207678E-02   5.480520646199987E-02
   5.549374433615736E-02   5.619091137050744E-02   5.689681490056129E-02
   5.761156356591278E-02   5.833526732488541E-02   5.906803746929774E-02
   5.980998663934441E-02   6.056122883859267E-02   6.132187944909226E-02
   6.209205524659833E-02   6.287187441590482E-02   6.366145656628715E-02
   6.446092274705238E-02   6.527039546319451E-02   6.608999869115374E-02
   6.691985789467687E-02   6.776010004077528E-02   6.861085361578030E-02
   6.947224864149157E-02   7.034441669141532E-02   7.122749090709091E-02
   7.212160601450018E-02   7.302689834055796E-02   7.394350582967914E-02
   7.487156806041825E-02   7.581122626217744E-02   7.676262333197800E-02
   7.772590385129204E-02   7.870121410292742E-02   7.968870208796193E-02
   8.068851754272162E-02   8.170081195579473E-02   8.272573858507873E-02
   8.376345247485104E-02   8.481411047285865E-02   8.587787124741729E-02
   8.695489530451407E-02   8.804534500490560E-02   8.914938458120336E-02
   9.026718015493505E-02   9.139889975357737E-02   9.254471332754585E-02
   9.370479276713455E-02   9.487931191939378E-02   9.606844660493528E-02
   9.727237463465307E-02   9.849127582634702E-02   9.972533202123783E-02
   1.009747271003584E-01   1.022396470008089E-01   1.035202797318607E-01
   1.048168153908930E-01   1.061294461791474E-01   1.074583664172823E-01
   1.088037725607122E-01   1.101658632147101E-01   1.115448391492571E-01
   1.129409033136183E-01   1.143542608506233E-01   1.157851191106315E-01
   1.172336876651594E-01   1.187001783201436E-01   1.201848051288192E-01
   1.216877844041849E-01   1.232093347310301E-01   1.247496769774956E-01
   1.263090343061377E-01   1.278876321844674E-01   1.294856983949336E-01
   1.311034630443151E-01   1.327411585724906E-01   1.343990197605480E-01
   1.360772837381987E-01   1.377761899904579E-01   1.394959803635504E-01
   1.412368990700007E-01   1.429991926928635E-01   1.447831101890518E-01
   1.465889028917127E-01   1.484168245116043E-01   1.502671311374241E-01
   1.521400812350329E-01   1.540359356455236E-01   1.559549575820748E-01
   1.578974126255323E-01   1.598635687186575E-01   1.618536961589752E-01
   1.638680675901607E-01   1.659069579918923E-01   1.679706446681002E-01
   1.700594072335384E-01   1.721735275986006E-01   1.743132899523017E-01
   1.764789807433408E-01   1.786708886591620E-01   1.808893046029224E-01
   1.831345216682718E-01   1.854068351118543E-01   1.877065423234259E-01
   1.900339427934896E-01   1.923893380783376E-01   1.947730317623904E-01
   1.971853294177180E-01   1.996265385606241E-01   2.020969686051681E-01
   2.045969308134980E-01   2.071267382428596E-01   2.096867056891473E-01
   2.122771496268509E-01   2.148983881452503E-01   2.175507408807092E-01
   2.202345289449036E-01   2.229500748488262E-01   2.256977024223946E-01
   2.284777367294864E-01   2.312905039782217E-01   2.341363314263022E-01
   2.370155472812178E-01   2.399284805951102E-01   2.428754611540949E-01
   2.458568193618214E-01   2.488728861170465E-01   2.519239926849989E-01
   2.550104705622883E-01   2.581326513351205E-01   2.612908665305637E-01
   2.644854474605977E-01   2.677167250586857E-01   2.709850297085820E-01
   2.742906910650909E-01   2.776340378664797E-01   2.810153977382355E-01
   2.844350969878550E-01   2.878934603903376E-01   2.913908109640470E-01
   2.949274697365970E-01   2.985037555003957E-01   3.021199845574959E-01
   3.057764704533597E-01   3.094735236991538E-01   3.132114514821747E-01
   3.169905573639905E-01   3.208111409658747E-01   3.246734976410989E-01
   3.285779181336335E-01   3.325246882227991E-01   3.365140883533936E-01
   3.405463932508111E-01   3.446218715206594E-01   3.487407852323607E-01
   3.529033894862157E-01   3.571099319633911E-01   3.613606524582919E-01
   3.656557823927498E-01   3.699955443114517E-01   3.743801513580323E-01
   3.788098067312178E-01   3.832847031204203E-01   3.878050221201518E-01
   3.923709336226294E-01   3.969825951879107E-01   4.016401513909084E-01
   4.063437331446165E-01   4.110934569988536E-01   4.158894244138432E-01
   4.207317210079226E-01   4.256204157786707E-01   4.305555602967340E-01
   4.355371878716293E-01   4.405653126887736E-01   4.456399289170275E-01
   4.507610097859788E-01   4.559285066322385E-01   4.611423479139929E-01
   4.664024381930584E-01   4.717086570836962E-01   4.770608581674329E-01
   4.824588678731490E-01   4.879024843216979E-01   4.933914761343307E-01
   4.989255812042134E-01   5.045045054303297E-01   5.101279214130884E-01
   5.157954671109768E-01   5.215067444576085E-01   5.272613179385666E-01
   5.330587131274422E-01   5.388984151805406E-01   5.447798672897306E-01
   5.507024690929763E-01   5.566655750421527E-01   5.626684927277580E-01
   5.687104811602536E-01   5.747907490077738E-01   5.809084527900658E-01
   5.870626950285744E-01   5.932525223526746E-01   5.994769235621841E-01
   6.057348276463300E-01   6.120251017595258E-01   6.183465491544006E-01
   6.246979070726396E-01   6.310778445943974E-01   6.374849604471388E-01
   6.439177807749632E-01   6.503747568696409E-01   6.568542628647839E-01
   6.633545933947828E-01   6.698739612203501E-01   6.764104948227586E-01
   6.829622359691350E-01   6.895271372513896E-01   6.961030596017086E-01
   7.026877697878009E-01   7.092789378914277E-01   7.158741347741110E-01
   7.224708295342416E-01   7.290663869602538E-01   7.356580649848761E-01
   7.422430121459731E-01   7.488182650599055E-01   7.553807459138205E-01
   7.619272599838433E-01   7.684544931866175E-01   7.749590096722366E-01
   7.814372494672174E-01   7.878855261767281E-01   7.943000247560279E-01
   8.006767993616540E-01   8.070117712936602E-01   8.133007270409611E-01
   8.195393164425341E-01   8.257230509781244E-01   8.318473022028449E-01
   8.379073003409775E-01   8.438981330551393E-01   8.498147444078796E-01
   8.556519340337606E-01   8.614043565408899E-01   8.670665211618769E-01
   8.726327916752126E-01   8.780973866190741E-01   8.834543798205936E-01
   8.886977012647067E-01   8.938211383277390E-01   8.988183374019533E-01
   9.036828059383357E-01   9.084079149359554E-01   9.129869019072669E-01
   9.174128743497149E-01   9.216788137550215E-01   9.257775801884121E-01
   9.297019174709873E-01   9.334444589992031E-01   9.369977342362107E-01
   9.403541759104509E-01   9.435061279574207E-01   9.464458542409886E-01
   9.491655480908805E-01   9.516573426931154E-01   9.539133223700875E-01
   9.559255347867124E-01   9.576860041186079E-01   9.591867452174413E-01
   9.604197788076271E-01   9.613771477471421E-01   9.620509343835205E-01
   9.624332790340279E-01   9.625163996164692E-01   9.622926124541297E-01
   9.617543542748813E-01   9.608942054204478E-01   9.597049142772308E-01
   9.581794229348514E-01   9.563108940726573E-01   9.540927390677615E-01
   9.515186473107561E-01   9.485826167070106E-01   9.452789853323356E-01
   9.416024642016061E-01   9.375481710978188E-01   9.331116653969900E-01
   9.282889838110616E-01   9.230766769566081E-01   9.174718466416200E-01
   9.114721837458424E-01   9.050760065521488E-01   8.982822993670943E-01
   8.910907512482321E-01   8.835017946338051E-01   8.755166436472421E-01
   8.671373318243613E-01   8.583667489853803E-01   8.492086769468847E-01
   8.396678237407696E-01   8.297498559779714E-01   8.194614289647616E-01
   8.088102141484574E-01   7.978049234379927E-01   7.864553299129324E-01
   7.747722844025607E-01   7.627677273849830E-01   7.504546956248933E-01
   7.378473229385260E-01   7.249608344454008E-01   7.118115336396191E-01
   6.984167815891578E-01   6.847949675503607E-01   6.709654702677323E-01
   6.569486092166308E-01   6.427655850399586E-01   6.284384084270742E-01
   6.139898166963821E-01   5.994431773534767E-01   5.848223779256139E-01
   5.701517014106439E-01   5.554556867287871E-01   5.407589736302102E-01
   5.260861315917388E-01   5.114614723335532E-01   4.969088457030104E-01
   4.824514188090302E-01   4.681114384508711E-01   4.539099770682376E-01
   4.398666626478002E-01   4.259993932566354E-01   4.123240371364849E-01
   3.988541195855571E-01   3.856004981776633E-01   3.725710282222213E-01
   3.597702207536037E-01   3.472001173834052E-01   3.348648808087694E-01
   3.227691676604795E-01   3.109172071353874E-01   2.993128009802059E-01
   2.879593244653945E-01   2.768597283530805E-01   2.660165418568091E-01
   2.554318765863686E-01   2.451074314648172E-01   2.350444997215692E-01
   2.252439848010162E-01   2.157063882299041E-01   2.064318266712480E-01
   1.974200423761685E-01   1.886704133241647E-01   1.801819640790635E-01
   1.719533773030123E-01   1.639830058691315E-01   1.562688855111983E-01
   1.488087479476112E-01   1.416000344166405E-01   1.346399095605558E-01
   1.279252755975597E-01   1.214527867224014E-01   1.152188636790048E-01
   1.092197084512577E-01   1.034513190211587E-01   9.790950414668388E-02
   9.258989811489227E-02   8.748797542887204E-02   8.259906539005192E-02
   7.791836654012488E-02   7.344096092932863E-02   6.916182818008013E-02
   6.507585931698416E-02   6.117787033604076E-02   5.746261548748285E-02
   5.392480024812651E-02   5.055909396043071E-02   4.736014211668822E-02
   4.432257826793078E-02   4.144103553825936E-02   3.871015772644096E-02
   3.612460997775872E-02   3.367908901029055E-02   3.136833288103381E-02
   2.918713027860175E-02   2.713032933059718E-02   2.519284591522343E-02
   2.336967146822264E-02   2.165588027782970E-02   2.004663626209417E-02
   1.853719922464177E-02   1.712293058671056E-02   1.579929859509524E-02
   1.456188300745053E-02   1.340637925822934E-02   1.232860211034988E-02
   1.132448879948109E-02   1.039010167959718E-02   9.521630380163062E-03
   8.715393486960548E-03   7.967839760139156E-03   7.275548904560479E-03
   6.635231908893606E-03   6.043730971199164E-03   5.498019029903622E-03
   4.995198920105936E-03   4.532502176069241E-03   4.107287501526823E-03
   3.717038930070284E-03   3.359363698386476E-03   3.031989855468440E-03
   2.732763631143733E-03   2.459646587344038E-03   2.210712575485063E-03
   1.984144523139921E-03   1.778231072877740E-03   1.591363095707854E-03
   1.422030101026166E-03   1.268816564311473E-03   1.130398193074343E-03
   1.005538150728577E-03   8.930832571446078E-04   7.919601836654564E-04
   7.011716593288092E-04   6.197927039536889E-04   5.469669026272107E-04
   4.819027349759151E-04   4.238699714372355E-04   3.721961475692019E-04
   3.262631262597564E-04   2.855037565298962E-04   2.493986364754291E-04
   2.174729867682077E-04   1.892936400463284E-04   1.644661504703704E-04
   1.426320267150240E-04   1.234660907074123E-04   1.066739635193247E-04
   9.198967897397243E-05   7.917342474154323E-05   6.800940997385295E-05
   5.830385786813092E-05   4.988312095412385E-05   4.259191636731573E-05
   3.629167790357461E-05   3.085902124584223E-05   2.618431840994004E-05
   2.217037717208992E-05   1.873122101283332E-05   1.579096493782375E-05
   1.328278241231607E-05   1.114795856968190E-05   9.335024821369897E-06
   7.798970002686630E-06   6.500523231808422E-06   5.405503734724189E-06
   4.484232992544006E-06   3.711004696039529E-06   3.063608141753979E-06
   2.522900871006414E-06   2.072426534252534E-06   1.698074155370794E-06
   1.387775170543743E-06   1.131234821746227E-06   9.196946929143292E-07
   7.457233853726361E-07   6.030325360074034E-07   4.863155851993289E-07
   3.911069001220632E-07   3.136590513560331E-07   2.508362257715327E-07
   2.000219354238940E-07   1.590393501011861E-07   1.260827396813525E-07
   9.965866127119093E-08   7.853566504799678E-08   6.170142177670198E-08
   4.832629422162640E-08   3.773248430649308E-08   2.936798818029382E-08
   2.278468267282449E-08   1.761994938226375E-08   1.358131728169891E-08
   1.043367174683130E-08   7.988637798001621E-09   6.095798630915910E-09
   4.635457697999188E-09   3.512694205861167E-09   2.652498411043719E-09
   1.995805005407943E-09   1.496270641744777E-09   1.117665692051527E-09
   8.317710608575812E-10   6.166886709072344E-10   4.554894460725301E-10
   3.351355548922559E-10   2.456246370120457E-10   1.793129753481386E-10
   1.303823334117453E-10   9.442165881825322E-11   6.810024558591358E-11
   4.891341226177373E-11   3.498543268753476E-11   2.491747526080615E-11
   1.767077200747374E-11   1.247724276552425E-11   8.771421010731914E-12
   6.138833226834842E-12   4.277029763260042E-12   2.966299325548032E-12
   2.047761287061980E-12   1.407052860690374E-12   9.622390596747555E-13
   6.548946797630725E-13   4.435575263738756E-13   2.989456358394074E-13
   2.004802902797651E-13   1.337708323170792E-13   8.880434036000365E-14
   5.864923552374856E-14   3.853168003575799E-14   2.518098018440432E-14
   1.636807952339345E-14   1.058191324193300E-14   6.803661416836255E-15
   4.350144066442266E-15   2.765778976536124E-15   1.748458167054652E-15
   1.098981248421120E-15   6.867560539078838E-16   4.266680045790162E-16
   2.635731685276724E-16   1.619649539506782E-16   9.913165407111247E-17
   6.065708845350118E-17   3.688078284591549E-17   2.228265881744938E-17
   1.337665671435966E-17   7.978234410509230E-18   4.727256288972473E-18
   2.782394525036336E-18   1.626668608955028E-18   9.445249315986603E-19
   5.446586654623668E-19   3.118848493832657E-19   1.773310357515648E-19
   1.001053057012837E-19   5.610119201123780E-20   3.120972988834044E-20
   1.723338698122903E-20   9.444375710106564E-21   5.136373763410343E-21
   2.771909041270116E-21   1.484219193022399E-21   7.884442885070884E-22
   4.154842149602648E-22   2.171724341479219E-22   1.125841036363325E-22
   5.787975013361950E-23   2.950583064765808E-23   1.491332634085135E-23
   7.472741321185756E-24   3.711733727016572E-24   1.827330927962498E-24
   8.915641797333472E-25   4.310562149193116E-25   2.064958667528814E-25
   9.800192402670237E-26   4.607365102228656E-26   2.145427295491348E-26
   9.893861611329301E-27   4.518099280367090E-27   2.042819538388043E-27
   9.143958422052555E-28   4.051478305929591E-28   1.776692078157655E-28
   7.710345240248573E-29   3.310864613863898E-29   1.406556459304685E-29
   5.911021653613813E-30   2.456961280511297E-30   1.009960662438753E-30
   4.105066873977977E-31   1.649620822803389E-31   6.552904658359284E-32
   2.572801739783051E-32   9.982462279243611E-33   3.827042192921909E-33
   1.449497781010507E-33   5.422933567617164E-34   2.003762743539572E-34
   7.311148559595455E-35   2.633803541827539E-35   9.366339527188007E-36
   0.000000000000000E+00   0.000000000000000E+00   0.000000000000000E+00
   0.000000000000000E+00   0.000000000000000E+00   0.000000000000000E+00
   0.000000000000000E+00   0.000000000000000E+00   0.000000000000000E+00
   0.000000000000000E+00   0.000000000000000E+00   0.000000000000000E+00
   0.000000000000000E+00   0.000000000000000E+00   0.000000000000000E+00
   0.000000000000000E+00   0.000000000000000E+00   0.000000000000000E+00
   0.000000000000000E+00   0.000000000000000E+00   0.000000000000000E+00
   0.000000000000000E+00   0.000000000000000E+00   0.000000000000000E+00
   0.000000000000000E+00   0.000000000000000E+00   0.000000000000000E+00
   0.000000000000000E+00   0.000000000000000E+00   0.000000000000000E+00
   0.000000000000000E+00   0.000000000000000E+00   0.000000000000000E+00
   0.000000000000000E+00   0.000000000000000E+00   0.000000000000000E+00
   0.000000000000000E+00   0.000000000000000E+00   0.000000000000000E+00
   0.000000000000000E+00   0.000000000000000E+00   0.000000000000000E+00
   0.000000000000000E+00   0.000000000000000E+00   0.000000000000000E+00
   0.000000000000000E+00   0.000000000000000E+00   0.000000000000000E+00
   0.000000000000000E+00   0.000000000000000E+00   0.000000000000000E+00
   0.000000000000000E+00   0.000000000000000E+00   0.000000000000000E+00
   0.000000000000000E+00   0.000000000000000E+00   0.000000000000000E+00
   0.000000000000000E+00   0.000000000000000E+00   0.000000000000000E+00
   0.000000000000000E+00   0.000000000000000E+00   0.000000000000000E+00
   0.000000000000000E+00   0.000000000000000E+00   0.000000000000000E+00
   0.000000000000000E+00   0.000000000000000E+00   0.000000000000000E+00
   0.000000000000000E+00   0.000000000000000E+00   0.000000000000000E+00
   0.000000000000000E+00   0.000000000000000E+00   0.000000000000000E+00
   0.000000000000000E+00   0.000000000000000E+00   0.000000000000000E+00
   0.000000000000000E+00   0.000000000000000E+00   0.000000000000000E+00
   0.000000000000000E+00   0.000000000000000E+00   0.000000000000000E+00
   0.000000000000000E+00
    </PP_CHI.1>
    <PP_CHI.2 size="1129" index="2" label="3S" l="0" occupation="2.0000000000000000" n="2" cutoff_radius="0.69999999999999996" ultrasoft_cutoff_radius="1.3999999999999999">
   1.731244529428141E-04   1.753020904200371E-04   1.775071192022713E-04
   1.797398838296251E-04   1.820007331759845E-04   1.842900205035246E-04
   1.866081035179079E-04   1.889553444241766E-04   1.913321099833464E-04
   1.937387715697157E-04   1.961757052288906E-04   1.986432917365450E-04
   2.011419166579156E-04   2.036719704080478E-04   2.062338483127990E-04
   2.088279506706079E-04   2.114546828150419E-04   2.141144551781314E-04
   2.168076833544998E-04   2.195347881663018E-04   2.222961957289757E-04
   2.250923375178259E-04   2.279236504354406E-04   2.307905768799589E-04
   2.336935648141959E-04   2.366330678356372E-04   2.396095452473144E-04
   2.426234621295711E-04   2.456752894127323E-04   2.487655039506892E-04
   2.518945885954058E-04   2.550630322723669E-04   2.582713300569724E-04
   2.615199832518932E-04   2.648094994654009E-04   2.681403926906812E-04
   2.715131833861464E-04   2.749283985567571E-04   2.783865718363674E-04
   2.818882435711059E-04   2.854339609038049E-04   2.890242778594917E-04
   2.926597554319556E-04   2.963409616714028E-04   3.000684717732163E-04
   3.038428681678293E-04   3.076647406117303E-04   3.115346862796131E-04
   3.154533098576858E-04   3.194212236381536E-04   3.234390476148889E-04
   3.275074095803061E-04   3.316269452234542E-04   3.357982982293437E-04
   3.400221203795219E-04   3.442990716539143E-04   3.486298203339465E-04
   3.530150431069645E-04   3.574554251719646E-04   3.619516603466572E-04
   3.665044511758763E-04   3.711145090413508E-04   3.757825542728595E-04
   3.805093162607802E-04   3.852955335700590E-04   3.901419540556102E-04
   3.950493349791662E-04   4.000184431276028E-04   4.050500549327471E-04
   4.101449565926951E-04   4.153039441946545E-04   4.205278238393324E-04
   4.258174117668896E-04   4.311735344844748E-04   4.365970288953697E-04
   4.420887424297486E-04   4.476495331770928E-04   4.532802700202657E-04
   4.589818327712716E-04   4.647551123087311E-04   4.706010107170722E-04
   4.765204414274852E-04   4.825143293606432E-04   4.885836110712185E-04
   4.947292348942200E-04   5.009521610931664E-04   5.072533620101275E-04
   5.136338222176481E-04   5.200945386725872E-04   5.266365208718918E-04
   5.332607910103245E-04   5.399683841401819E-04   5.467603483330183E-04
   5.536377448434039E-04   5.606016482747433E-04   5.676531467471764E-04
   5.747933420675971E-04   5.820233499018054E-04   5.893442999488273E-04
   5.967573361174278E-04   6.042636167048403E-04   6.118643145777451E-04
   6.195606173555292E-04   6.273537275958421E-04   6.352448629824957E-04
   6.432352565157192E-04   6.513261567048100E-04   6.595188277632055E-04
   6.678145498060152E-04   6.762146190500280E-04   6.847203480162426E-04
   6.933330657349386E-04   7.020541179533323E-04   7.108848673458404E-04
   7.198266937269919E-04   7.288809942670143E-04   7.380491837101309E-04
   7.473326945956098E-04   7.567329774815827E-04   7.662515011716904E-04
   7.758897529445672E-04   7.856492387862204E-04   7.955314836253288E-04
   8.055380315715003E-04   8.156704461565245E-04   8.259303105786641E-04
   8.363192279500143E-04   8.468388215469765E-04   8.574907350638770E-04
   8.682766328697816E-04   8.791982002685332E-04   8.902571437620663E-04
   9.014551913170292E-04   9.127940926347593E-04   9.242756194246562E-04
   9.359015656809891E-04   9.476737479631906E-04   9.595940056796681E-04
   9.716642013751896E-04   9.838862210218835E-04   9.962619743138980E-04
   1.008793394965757E-03   1.021482441014486E-03   1.034331095125518E-03
   1.047341364902469E-03   1.060515283200777E-03   1.073854908445315E-03
   1.087362324951990E-03   1.101039643253369E-03   1.114889000428428E-03
   1.128912560436428E-03   1.143112514454987E-03   1.157491081222421E-03
   1.172050507384375E-03   1.186793067844821E-03   1.201721066121461E-03
   1.216836834705600E-03   1.232142735426560E-03   1.247641159820652E-03
   1.263334529504809E-03   1.279225296554900E-03   1.295315943888811E-03
   1.311608985654350E-03   1.328106967621996E-03   1.344812467582637E-03
   1.361728095750261E-03   1.378856495169742E-03   1.396200342129734E-03
   1.413762346580771E-03   1.431545252558618E-03   1.449551838612929E-03
   1.467784918241329E-03   1.486247340328923E-03   1.504941989593334E-03
   1.523871787035359E-03   1.543039690395252E-03   1.562448694614793E-03
   1.582101832305111E-03   1.602002174220435E-03   1.622152829737775E-03
   1.642556947342633E-03   1.663217715120839E-03   1.684138361256541E-03
   1.705322154536488E-03   1.726772404860625E-03   1.748492463759107E-03
   1.770485724915837E-03   1.792755624698557E-03   1.815305642695620E-03
   1.838139302259503E-03   1.861260171057136E-03   1.884671861627171E-03
   1.908378031944256E-03   1.932382385990369E-03   1.956688674333378E-03
   1.981300694712823E-03   2.006222292633110E-03   2.031457361964109E-03
   2.057009845549347E-03   2.082883735821814E-03   2.109083075427503E-03
   2.135611957856820E-03   2.162474528083894E-03   2.189674983213930E-03
   2.217217573138703E-03   2.245106601200265E-03   2.273346424863032E-03
   2.301941456394277E-03   2.330896163553188E-03   2.360215070288589E-03
   2.389902757445403E-03   2.419963863480021E-03   2.450403085184633E-03
   2.481225178420656E-03   2.512434958861413E-03   2.544037302744072E-03
   2.576037147631116E-03   2.608439493181288E-03   2.641249401930276E-03
   2.674472000081200E-03   2.708112478304981E-03   2.742176092550832E-03
   2.776668164866850E-03   2.811594084230974E-03   2.846959307392341E-03
   2.882769359723206E-03   2.919029836081588E-03   2.955746401684707E-03
   2.992924792993407E-03   3.030570818607697E-03   3.068690360173480E-03
   3.107289373300725E-03   3.146373888493124E-03   3.185950012089419E-03
   3.226023927216575E-03   3.266601894754852E-03   3.307690254315072E-03
   3.349295425228063E-03   3.391423907546567E-03   3.434082283059715E-03
   3.477277216320184E-03   3.521015455684335E-03   3.565303834365261E-03
   3.610149271499189E-03   3.655558773225133E-03   3.701539433778160E-03
   3.748098436596350E-03   3.795243055441601E-03   3.842980655534540E-03
   3.891318694703636E-03   3.940264724548694E-03   3.989826391618979E-03
   4.040011438606060E-03   4.090827705551641E-03   4.142283131070512E-03
   4.194385753588804E-03   4.247143712597793E-03   4.300565249923370E-03
   4.354658711011468E-03   4.409432546229536E-03   4.464895312184327E-03
   4.521055673056186E-03   4.577922401950069E-03   4.635504382263423E-03
   4.693810609071236E-03   4.752850190528402E-03   4.812632349289654E-03
   4.873166423947222E-03   4.934461870486520E-03   4.996528263760006E-03
   5.059375298979513E-03   5.123012793227218E-03   5.187450686985512E-03
   5.252699045685989E-03   5.318768061277814E-03   5.385668053815656E-03
   5.453409473067508E-03   5.522002900142573E-03   5.591459049139461E-03
   5.661788768815036E-03   5.733003044274030E-03   5.805112998679787E-03
   5.878129894986360E-03   5.952065137692223E-03   6.026930274615878E-03
   6.102736998693538E-03   6.179497149799366E-03   6.257222716588287E-03
   6.335925838361818E-03   6.415618806957204E-03   6.496314068659984E-03
   6.578024226140500E-03   6.660762040414440E-03   6.744540432827828E-03
   6.829372487066735E-03   6.915271451191977E-03   7.002250739699155E-03
   7.090323935604264E-03   7.179504792555302E-03   7.269807236970086E-03
   7.361245370200662E-03   7.453833470724611E-03   7.547585996363508E-03
   7.642517586528994E-03   7.738643064496678E-03   7.835977439708286E-03
   7.934535910102366E-03   8.034333864473832E-03   8.135386884862806E-03
   8.237710748973066E-03   8.341321432620395E-03   8.446235112211249E-03
   8.552468167252136E-03   8.660037182890002E-03   8.768958952484023E-03
   8.879250480209159E-03   8.990928983691963E-03   9.104011896678787E-03
   9.218516871737041E-03   9.334461782989724E-03   9.451864728883628E-03
   9.570744034991707E-03   9.691118256849983E-03   9.813006182829254E-03
   9.936426837042283E-03   1.006139948228660E-02   1.018794362302354E-02
   1.031607900839379E-02   1.044582563527007E-02   1.057720375134710E-02
   1.071023385826957E-02   1.084493671479834E-02   1.098133334001539E-02
   1.111944501656810E-02   1.125929329395299E-02   1.140089999183970E-02
   1.154428720343548E-02   1.168947729889070E-02   1.183649292874588E-02
   1.198535702742071E-02   1.213609281674544E-02   1.228872380953522E-02
   1.244327381320789E-02   1.259976693344549E-02   1.275822757790041E-02
   1.291868045994619E-02   1.308115060247372E-02   1.324566334173343E-02
   1.341224433122377E-02   1.358091954562649E-02   1.375171528478955E-02
   1.392465817775760E-02   1.409977518685126E-02   1.427709361179511E-02
   1.445664109389518E-02   1.463844562026662E-02   1.482253552811163E-02
   1.500893950904872E-02   1.519768661349346E-02   1.538880625509138E-02
   1.558232821520362E-02   1.577828264744579E-02   1.597670008228056E-02
   1.617761143166477E-02   1.638104799375120E-02   1.658704145764601E-02
   1.679562390822201E-02   1.700682783098860E-02   1.722068611701879E-02
   1.743723206793389E-02   1.765649940094659E-02   1.787852225396252E-02
   1.810333519074151E-02   1.833097320611869E-02   1.856147173128595E-02
   1.879486663913474E-02   1.903119424966010E-02   1.927049133542733E-02
   1.951279512710100E-02   1.975814331903757E-02   2.000657407494169E-02
   2.025812603358702E-02   2.051283831460196E-02   2.077075052432093E-02
   2.103190276170180E-02   2.129633562430982E-02   2.156409021436878E-02
   2.183520814487982E-02   2.210973154580853E-02   2.238770307034066E-02
   2.266916590120734E-02   2.295416375707979E-02   2.324274089903456E-02
   2.353494213708939E-02   2.383081283681035E-02   2.413039892599089E-02
   2.443374690140290E-02   2.474090383562056E-02   2.505191738391718E-02
   2.536683579123591E-02   2.568570789923401E-02   2.600858315340183E-02
   2.633551161025648E-02   2.666654394461055E-02   2.700173145691646E-02
   2.734112608068673E-02   2.768478038999031E-02   2.803274760702537E-02
   2.838508160976908E-02   2.874183693970419E-02   2.910306880962300E-02
   2.946883311150895E-02   2.983918642449559E-02   3.021418602290361E-02
   3.059388988435575E-02   3.097835669796974E-02   3.136764587262960E-02
   3.176181754533473E-02   3.216093258962750E-02   3.256505262409878E-02
   3.297424002097153E-02   3.338855791476248E-02   3.380807021102133E-02
   3.423284159514767E-02   3.466293754128510E-02   3.509842432129245E-02
   3.553936901379162E-02   3.598583951329141E-02   3.643790453938744E-02
   3.689563364603695E-02   3.735909723090841E-02   3.782836654480519E-02
   3.830351370116222E-02   3.878461168561522E-02   3.927173436564124E-02
   3.976495650027020E-02   4.026435374986589E-02   4.077000268597504E-02
   4.128198080124384E-02   4.180036651940035E-02   4.232523920530174E-02
   4.285667917504395E-02   4.339476770613303E-02   4.393958704771621E-02
   4.449122043087058E-02   4.504975207894765E-02   4.561526721797188E-02
   4.618785208709038E-02   4.676759394907230E-02   4.735458110085432E-02
   4.794890288413048E-02   4.855064969598327E-02   4.915991299955273E-02
   4.977678533474100E-02   5.040136032894819E-02   5.103373270783686E-02
   5.167399830612140E-02   5.232225407837728E-02   5.297859810986778E-02
   5.364312962738276E-02   5.431594901008473E-02   5.499715780035890E-02
   5.568685871466026E-02   5.638515565435406E-02   5.709215371654329E-02
   5.780795920487748E-02   5.853267964033725E-02   5.926642377198732E-02
   6.000930158769186E-02   6.076142432478567E-02   6.152290448069252E-02
   6.229385582348473E-02   6.307439340237370E-02   6.386463355812522E-02
   6.466469393338936E-02   6.547469348293632E-02   6.629475248378848E-02
   6.712499254523809E-02   6.796553661874098E-02   6.881650900767505E-02
   6.967803537695103E-02   7.055024276246522E-02   7.143325958038033E-02
   7.232721563622227E-02   7.323224213377824E-02   7.414847168378325E-02
   7.507603831237948E-02   7.601507746933191E-02   7.696572603598696E-02
   7.792812233295439E-02   7.890240612749608E-02   7.988871864060471E-02
   8.088720255375065E-02   8.189800201527939E-02   8.292126264643807E-02
   8.395713154700921E-02   8.500575730053057E-02   8.606728997907616E-02
   8.714188114757489E-02   8.822968386764238E-02   8.933085270089783E-02
   9.044554371174061E-02   9.157391446955571E-02   9.271612405032160E-02
   9.387233303758649E-02   9.504270352278285E-02   9.622739910484690E-02
   9.742658488910663E-02   9.864042748540526E-02   9.986909500541967E-02
   1.011127570591374E-01   1.023715847504502E-01   1.036457506718226E-01
   1.049354288979920E-01   1.062407949786555E-01   1.075620259300941E-01
   1.088993002256892E-01   1.102527977852767E-01   1.116226999632883E-01
   1.130091895356244E-01   1.144124506852029E-01   1.158326689861229E-01
   1.172700313863842E-01   1.187247261890972E-01   1.201969430321192E-01
   1.216868728660463E-01   1.231947079304935E-01   1.247206417285848E-01
   1.262648689995822E-01   1.278275856895696E-01   1.294089889201128E-01
   1.310092769548097E-01   1.326286491636418E-01   1.342673059850363E-01
   1.359254488855452E-01   1.376032803170406E-01   1.393010036713275E-01
   1.410188232320658E-01   1.427569441238966E-01   1.445155722586538E-01
   1.462949142785522E-01   1.480951774962232E-01   1.499165698314765E-01
   1.517592997446585E-01   1.536235761664725E-01   1.555096084241215E-01
   1.574176061636299E-01   1.593477792681953E-01   1.613003377724178E-01
   1.632754917722475E-01   1.652734513304857E-01   1.672944263776683E-01
   1.693386266081591E-01   1.714062613712694E-01   1.734975395572180E-01
   1.756126694777356E-01   1.777518587411173E-01   1.799153141215137E-01
   1.821032414222494E-01   1.843158453329485E-01   1.865533292802399E-01
   1.888158952718106E-01   1.911037437335614E-01   1.934170733396213E-01
   1.957560808349607E-01   1.981209608503392E-01   2.005119057093182E-01
   2.029291052270556E-01   2.053727465005944E-01   2.078430136903485E-01
   2.103400877924792E-01   2.128641464018481E-01   2.154153634652216E-01
   2.179939090243973E-01   2.205999489489066E-01   2.232336446579452E-01
   2.258951528311703E-01   2.285846251079932E-01   2.313022077749874E-01
   2.340480414410242E-01   2.368222606997362E-01   2.396249937788994E-01
   2.424563621763113E-01   2.453164802817431E-01   2.482054549845217E-01
   2.511233852662929E-01   2.540703617785128E-01   2.570464664041910E-01
   2.600517718034153E-01   2.630863409421656E-01   2.661502266039232E-01
   2.692434708835700E-01   2.723661046630615E-01   2.755181470683501E-01
   2.786996049070316E-01   2.819104720861710E-01   2.851507290097665E-01
   2.884203419552952E-01   2.917192624287797E-01   2.950474264978187E-01
   2.984047541020023E-01   3.017911483401470E-01   3.052064947337657E-01
   3.086506604662003E-01   3.121234935968333E-01   3.156248222498011E-01
   3.191544537766265E-01   3.227121738921991E-01   3.262977457835280E-01
   3.299109091907036E-01   3.335513794595102E-01   3.372188465651432E-01
   3.409129741064888E-01   3.446333982704484E-01   3.483797267658049E-01
   3.521515377261363E-01   3.559483785813189E-01   3.597697648971787E-01
   3.636151791828760E-01   3.674840696656542E-01   3.713758490325951E-01
   3.752898931390919E-01   3.792255396837698E-01   3.831820868496452E-01
   3.871587919113673E-01   3.911548698084413E-01   3.951694916844055E-01
   3.992017833919810E-01   4.032508239643227E-01   4.073156440525565E-01
   4.113952243298920E-01   4.154884938626889E-01   4.195943284489655E-01
   4.237115489249554E-01   4.278389194404251E-01   4.319751457036182E-01
   4.361188731968167E-01   4.402686853636728E-01   4.444231017696172E-01
   4.485805762368280E-01   4.527394949554386E-01   4.568981745728486E-01
   4.610548602632121E-01   4.652077237794233E-01   4.693548614901299E-01
   4.734942924045752E-01   4.776239561883494E-01   4.817417111733826E-01
   4.858453323658552E-01   4.899325094559865E-01   4.940008448340194E-01
   4.980478516170745E-01   5.020709516919012E-01   5.060674737789818E-01
   5.100346515238229E-01   5.139696216217303E-01   5.178694219828103E-01
   5.217309899443960E-01   5.255511605386473E-01   5.293266648235339E-01
   5.330541282859886E-01   5.367300693265866E-01   5.403508978356556E-01
   5.439129138713736E-01   5.474123064510125E-01   5.508451524671377E-01
   5.542074157412674E-01   5.574949462281446E-01   5.607034793845183E-01
   5.638286357170472E-01   5.668659205246581E-01   5.698107238514812E-01
   5.726583206672150E-01   5.754038712925713E-01   5.780424220882250E-01
   5.805689064264645E-01   5.829781459655398E-01   5.852648522474652E-01
   5.874236286408122E-01   5.894489726507686E-01   5.913352786194694E-01
   5.930768408403200E-01   5.946678571106787E-01   5.961024327479095E-01
   5.973745850943664E-01   5.984782485373866E-01   5.994072800708234E-01
   6.001554654249788E-01   6.007165257920657E-01   6.010841251744772E-01
   6.012518783831731E-01   6.012133597133569E-01   6.009621123243809E-01
   6.004916583503379E-01   5.997955097671925E-01   5.988671800414385E-01
   5.977001965841983E-01   5.962881140333303E-01   5.946245283845060E-01
   5.927030919902903E-01   5.905175294439972E-01   5.880616543624984E-01
   5.853293870791655E-01   5.823147732546902E-01   5.790120034097228E-01
   5.754154333788978E-01   5.715196056810203E-01   5.673192717948230E-01
   5.628094153237598E-01   5.579852760268276E-01   5.528423746852480E-01
   5.473765387670784E-01   5.415839288433884E-01   5.354610657004749E-01
   5.290048580827905E-01   5.222126309906523E-01   5.150821544455327E-01
   5.076116726237061E-01   4.997999332462261E-01   4.916462170997962E-01
   4.831503675488730E-01   4.743128198844977E-01   4.651346303399569E-01
   4.556175045872543E-01   4.457638255119534E-01   4.355766800469915E-01
   4.250598848288575E-01   4.142180104222214E-01   4.030564038416627E-01
   3.915812090820130E-01   3.797993853519878E-01   3.677187226895609E-01
   3.553478546222752E-01   3.426962675214631E-01   3.297743062868367E-01
   3.165931759870604E-01   3.031649390734938E-01   2.895025077786844E-01
   2.756196313086522E-01   2.615308774394701E-01   2.472516081342756E-01
   2.327979488075506E-01   2.181867508798676E-01   2.034355472888754E-01
   1.885625006520618E-01   1.735863438142906E-01   1.585263125591580E-01
   1.434020703187311E-01   1.282336247816785E-01   1.130412363764166E-01
   9.784531869396521E-02   8.266633101573662E-02   6.752466322507411E-02
   5.244051350832738E-02   3.743375939243008E-02   2.252382282121198E-02
   7.729530142398943E-03  -6.931031938699283E-03  -2.144066318506231E-02
  -3.578319796846176E-02  -4.994365303653499E-02  -6.390837298444038E-02
  -7.766517126636129E-02  -9.120346433322057E-02  -1.045143962305612E-01
  -1.175909507387337E-01  -1.304280478904924E-01  -1.430226214634180E-01
  -1.553736738244983E-01  -1.674823043047141E-01  -1.793517071141978E-01
  -1.909871346798347E-01  -2.023958222076055E-01  -2.135868692518843E-01
  -2.245710741247850E-01  -2.353607171115089E-01  -2.459692886672483E-01
  -2.564111590634138E-01  -2.667011864750786E-01  -2.768542610943706E-01
  -2.868847835886068E-01  -2.968060771309544E-01  -3.066297333181234E-01
  -3.163648935636021E-01  -3.260174690250167E-01  -3.355893037964739E-01
  -3.450772879733975E-01  -3.544737496918954E-01  -3.637719483737875E-01
  -3.729659406861104E-01  -3.820498373703877E-01  -3.910178063765657E-01
  -3.998640757250389E-01  -4.085829361137638E-01  -4.171687432933618E-01
  -4.256159202413865E-01  -4.339189591734017E-01  -4.420724239605756E-01
  -4.500709561760619E-01  -4.579092672206342E-01  -4.655821445354268E-01
  -4.730844540830380E-01  -4.804111424278283E-01  -4.875572390172712E-01
  -4.945178587131753E-01  -5.012882046160727E-01  -5.078635712191817E-01
  -5.142393479205115E-01  -5.204110229130978E-01  -5.263741874643731E-01
  -5.321245405866902E-01  -5.376578940922204E-01  -5.429701780171911E-01
  -5.480574463928860E-01  -5.529158833341762E-01  -5.575418094107268E-01
  -5.619316882614149E-01  -5.660821334089590E-01  -5.699899152292757E-01
  -5.736519680284955E-01  -5.770653971799129E-01  -5.802274862732119E-01
  -5.831357042290486E-01  -5.857877123333755E-01  -5.881813711475784E-01
  -5.903147472526059E-01  -5.921861197875531E-01  -5.937939867456951E-01
  -5.951370709935666E-01  -5.962143259813416E-01  -5.970249411154844E-01
  -5.975683467672762E-01  -5.978442188934585E-01  -5.978524832477717E-01
  -5.975933191646184E-01  -5.970671628984536E-01  -5.962747105047487E-01
  -5.952169202505252E-01  -5.938950145444901E-01  -5.923104813786960E-01
  -5.904650752754983E-01  -5.883608177352201E-01  -5.859999971815489E-01
  -5.833851684031508E-01  -5.805191514913343E-01  -5.774050302748831E-01
  -5.740461502543247E-01  -5.704461160389723E-01  -5.666087882910675E-01
  -5.625382801822225E-01  -5.582389533682116E-01  -5.537154134888735E-01
  -5.489725052005830E-01  -5.440153067493607E-01  -5.388491240932595E-01
  -5.334794845831865E-01  -5.279121302117994E-01  -5.221530104405721E-01
  -5.162082746155816E-01  -5.100842639829404E-01  -5.037875033152857E-01
  -4.973246921611018E-01  -4.907026957291229E-01  -4.839285354205136E-01
  -4.770093790219982E-01  -4.699525305736523E-01  -4.627654199256038E-01
  -4.554555919985132E-01  -4.480306957633582E-01  -4.404984729567475E-01
  -4.328667465487228E-01  -4.251434089809470E-01  -4.173364101938733E-01
  -4.094537454625599E-01  -4.015034430617090E-01  -3.934935517815668E-01
  -3.854321283173583E-01  -3.773272245560509E-01  -3.691868747853599E-01
  -3.610190828510333E-01  -3.528318092896094E-01  -3.446329584649502E-01
  -3.364303657379675E-01  -3.282317847000241E-01  -3.200448745014879E-01
  -3.118771873078730E-01  -3.037361559168391E-01  -2.956290815700739E-01
  -2.875631219947177E-01  -2.795452797094620E-01  -2.715823906308207E-01
  -2.636811130152175E-01  -2.558479167725444E-01  -2.480890731866364E-01
  -2.404106450776991E-01  -2.328184774411108E-01  -2.253181885961689E-01
  -2.179151618772860E-01  -2.106145378988364E-01  -2.034212074233146E-01
  -1.963398048607091E-01  -1.893747024249917E-01  -1.825300049714138E-01
  -1.758095455358799E-01  -1.692168815950248E-01  -1.627552920628322E-01
  -1.564277750366247E-01  -1.502370463021382E-01  -1.441855386041198E-01
  -1.382754016855142E-01  -1.325085030948475E-01  -1.268864297578966E-01
  -1.214104903061833E-01  -1.160817181512781E-01  -1.109008752903618E-01
  -1.058684568250200E-01  -1.009846961718310E-01  -9.624957094002322E-02
  -9.166280944830858E-02  -8.722389784999514E-02  -8.293208783266395E-02
  -7.878640485607832E-02  -7.478565688960617E-02  -7.092844360829506E-02
  -6.721316600485695E-02  -6.363803637321655E-02  -6.020108861795929E-02
  -5.690018884299142E-02  -5.373304617200671E-02  -5.069722375293392E-02
  -4.779014989843110E-02  -4.500912931467835E-02  -4.235135437120789E-02
  -3.981391636528425E-02  -3.739381673539531E-02  -3.508797817973427E-02
  -3.289325563711348E-02  -3.080644708955088E-02  -2.882430414777983E-02
  -2.694354238313695E-02  -2.516085137166035E-02  -2.347290441875494E-02
  -2.187636793543547E-02  -2.036791043991227E-02  -1.894421116111849E-02
  -1.760196822366783E-02  -1.633790639665149E-02  -1.514878439161301E-02
  -1.403140169795600E-02  -1.298260494691904E-02  -1.199929379807936E-02
  -1.107842634509699E-02  -1.021702404007129E-02  -9.412176138433644E-03
  -8.661043668729222E-03  -7.960862933935988E-03  -7.308948553117305E-03
  -6.702696054198136E-03  -6.139584030485543E-03  -5.617175875216143E-03
  -5.133121109903189E-03  -4.685156323570431E-03  -4.271105741099198E-03
  -3.888881439879300E-03  -3.536483234745605E-03  -3.211998251804378E-03
  -2.913600212210675E-03  -2.639548447256746E-03  -2.388186666277699E-03
  -2.157941498882144E-03  -1.947320832881128E-03  -1.754911969026010E-03
  -1.579379613285527E-03  -1.419463726902788E-03  -1.273977253884586E-03
  -1.141803744897968E-03  -1.021894895792054E-03  -9.132680181366104E-04
  -8.150034582818991E-04  -7.262419805382902E-04  -6.461821292511734E-04
  -5.740775822364150E-04  -5.092345099184261E-04  -4.510089504256339E-04
  -3.988065821759776E-04  -3.520989354451886E-04  -3.103749350860264E-04
  -2.731615369006964E-04  -2.400240517032815E-04  -2.105637036009409E-04
  -1.844152815659659E-04  -1.612448861887280E-04  -1.407477729330886E-04
  -1.226462926757002E-04  -1.066879298069306E-04  -9.264343760728345E-05
  -8.030507034563601E-05  -6.948491093710610E-05  -6.001329270752474E-05
  -5.173731345077155E-05  -4.451943965014440E-05  -3.823619845757067E-05
  -3.277695478209751E-05  -2.804277063109945E-05  -2.394534367317214E-05
  -2.040602184967002E-05  -1.735489075099296E-05  -1.472993039256534E-05
  -1.247623797234389E-05  -1.054531316487016E-05  -8.894402504478676E-06
  -7.485899430325663E-06  -6.286796606407395E-06  -5.268187188650747E-06
  -4.404811786432275E-06  -3.674647955484443E-06  -3.058539161077509E-06
  -2.539860262679814E-06  -2.104216692121222E-06  -1.739174624824230E-06
  -1.434019576231622E-06  -1.179540991562051E-06  -9.678405349956812E-07
  -7.921619229825131E-07  -6.467402843532912E-07  -5.266691662027075E-07
  -4.277834381401579E-07  -3.465564776254808E-07  -2.800101450103401E-07
  -2.256361779947894E-07  -1.813277510020436E-07  -1.453200550996179E-07
  -1.161388582797599E-07  -9.255610397758645E-08  -7.355169755746257E-08
  -5.828071611925006E-08  -4.604535641604928E-08  -3.627100904307450E-08
  -2.848591451301870E-08  -2.230391857884245E-08  -1.740990043716232E-08
  -1.354749850839474E-08  -1.050880462808728E-08  -8.125738996199435E-09
  -6.262855424827545E-09  -4.811359610942536E-09  -3.684152649333267E-09
  -2.811738097943101E-09  -2.138853911616662E-09  -1.621710759763504E-09
  -1.225735916232191E-09  -9.237373214264270E-10  -6.944158211316157E-10
  -5.211652265725689E-10  -3.911099503265332E-10  -2.924291365876984E-10
  -2.178314619221144E-10  -1.616509825987592E-10  -1.195014581774542E-10
  -8.800031940163181E-11  -6.454911495019838E-11  -4.715957475790508E-11
  -3.431636585835903E-11  -2.486924044149885E-11  -1.794862986939790E-11
  -1.289986236894782E-11  -9.232110804005086E-12  -6.578940690566042E-12
  -4.667953808470757E-12  -3.297532114799939E-12  -2.319099673814772E-12
  -1.623653609838136E-12  -1.131582756012677E-12  -7.850065926964020E-13
  -5.420372005247432E-13  -3.725015917625583E-13  -2.547678043600922E-13
  -1.734012103422368E-13  -1.174422440640045E-13  -7.914697623887767E-14
  -5.307070780516041E-14  -3.540449887981818E-14  -2.349725610347458E-14
  -1.551324790118773E-14  -1.018794518258446E-14  -6.654873323859979E-15
  -4.323475384703010E-15  -2.793421692018177E-15  -1.794817354733581E-15
  -1.146710594133318E-15  -7.284611072673935E-16  -4.600941182588051E-16
  -2.888970813926873E-16  -1.803282571886632E-16  -1.118861084543771E-16
  -6.899974588057248E-17  -4.229066623827794E-17  -2.575927479761657E-17
  -1.559124298181380E-17  -9.376728790850891E-18  -5.602870024797856E-18
  -3.326005403730207E-18  -1.961339385589024E-18  -1.148850932637187E-18
  -6.683731972422846E-19  -3.861727293514764E-19  -2.215714295258555E-19
  -1.262343002944868E-19  -7.140585962920665E-20  -4.009997446840298E-20
  -2.235468376782737E-20  -1.236992534090992E-20  -6.793587264005966E-21
  -3.702743930908030E-21  -2.002622224311073E-21  -1.074689695723111E-21
  -5.721806638150584E-22  -3.022081070978454E-22  -1.583281523168140E-22
  -8.227066060712044E-23  -4.239569751709855E-23  -2.166422372305094E-23
  -1.097647876917985E-23  -5.513596144415921E-24  -2.745438471527388E-24
  -1.355019639792398E-24  -6.628087534057054E-25  -3.212851863619703E-25
  -1.543133233357406E-25
    </PP_CHI.2>
    <PP_CHI.3 size="1129" index="3" label="2P" l="1" occupation="6.0000000000000000" n="2" cutoff_radius="0.90000000000000002" ultrasoft_cutoff_radius="1.3000000000000000">
   1.965965282356363E-08   2.015733929968031E-08   2.066762476868857E-08
   2.119082817560352E-08   2.172727653956761E-08   2.227730515825159E-08
   2.284125781742655E-08   2.341948700584106E-08   2.401235413553805E-08
   2.462022976774915E-08   2.524349384450734E-08   2.588253592612311E-08
   2.653775543467222E-08   2.720956190364752E-08   2.789837523393053E-08
   2.860462595624311E-08   2.932875550024312E-08   3.007121647043228E-08
   3.083247292904851E-08   3.161300068611999E-08   3.241328759686166E-08
   3.323383386660059E-08   3.407515236342054E-08   3.493776893872095E-08
   3.582222275589122E-08   3.672906662730512E-08   3.765886735984642E-08
   3.861220610918156E-08   3.958967874300064E-08   4.059189621345412E-08
   4.161948493901736E-08   4.267308719602253E-08   4.375336152010223E-08
   4.486098311779519E-08   4.599664428857232E-08   4.716105485754628E-08
   4.835494261913489E-08   4.957905379195603E-08   5.083415348523853E-08
   5.212102617704017E-08   5.344047620457139E-08   5.479332826693223E-08
   5.618042794057570E-08   5.760264220782030E-08   5.906085999874183E-08
   6.055599274678330E-08   6.208897495843023E-08   6.366076479730703E-08
   6.527234468306023E-08   6.692472190540240E-08   6.861892925370022E-08
   7.035602566250135E-08   7.213709687340228E-08   7.396325611367164E-08
   7.583564479205323E-08   7.775543321218273E-08   7.972382130406509E-08
   8.174203937406921E-08   8.381134887390887E-08   8.593304318909043E-08
   8.810844844731987E-08   9.033892434737556E-08   9.262586500896277E-08
   9.497069984408345E-08   9.737489445046448E-08   9.983995152760260E-08
   1.023674118159998E-07   1.049588550601752E-07   1.076159009960555E-07
   1.103402103633617E-07   1.131334859436245E-07   1.159974736244766E-07
   1.189339634908880E-07   1.219447909440259E-07   1.250318378484392E-07
   1.281970337082829E-07   1.314423568733198E-07   1.347698357754513E-07
   1.381815501965523E-07   1.416796325684002E-07   1.452662693055121E-07
   1.489437021717232E-07   1.527142296813599E-07   1.565802085358838E-07
   1.605440550969044E-07   1.646082468964810E-07   1.687753241856587E-07
   1.730478915222043E-07   1.774286193985375E-07   1.819202459108722E-07
   1.865255784706127E-07   1.912474955590729E-07   1.960889485266181E-07
   2.010529634373513E-07   2.061426429604975E-07   2.113611683096684E-07
   2.167118012312197E-07   2.221978860429458E-07   2.278228517243804E-07
   2.335902140600164E-07   2.395035778367797E-07   2.455666390971336E-07
   2.517831874492180E-07   2.581571084354727E-07   2.646923859612215E-07
   2.713931047847349E-07   2.782634530703303E-07   2.853077250061032E-07
   2.925303234879259E-07   2.999357628713936E-07   3.075286717934328E-07
   3.153137960653426E-07   3.232960016390703E-07   3.314802776485790E-07
   3.398717395282084E-07   3.484756322099769E-07   3.572973334018217E-07
   3.663423569488291E-07   3.756163562795544E-07   3.851251279395839E-07
   3.948746152145498E-07   4.048709118448626E-07   4.151202658344802E-07
   4.256290833560970E-07   4.364039327551920E-07   4.474515486554401E-07
   4.587788361680504E-07   4.703928752076661E-07   4.823009249175180E-07
   4.945104282066036E-07   5.070290164017218E-07   5.198645140172767E-07
   5.330249436458251E-07   5.465185309724311E-07   5.603537099159578E-07
   5.745391279005087E-07   5.890836512603169E-07   6.039963707814585E-07
   6.192866073838523E-07   6.349639179471025E-07   6.510381012838165E-07
   6.675192042641427E-07   6.844175280953449E-07   7.017436347603462E-07
   7.195083536192648E-07   7.377227881780632E-07   7.563983230285461E-07
   7.755466309640479E-07   7.951796802752437E-07   8.153097422306612E-07
   8.359493987465573E-07   8.571115502509545E-07   8.788094237467536E-07
   9.010565810789679E-07   9.238669274112368E-07   9.472547199169182E-07
   9.712345766901980E-07   9.958214858827830E-07   1.021030815071884E-06
   1.046878320865347E-06   1.073380158749939E-06   1.100552893188938E-06
   1.128413507975338E-06   1.156979416847153E-06   1.186268474371432E-06
   1.216298987103805E-06   1.247089725030534E-06   1.278659933300206E-06
   1.311029344252414E-06   1.344218189750947E-06   1.378247213829176E-06
   1.413137685655570E-06   1.448911412827414E-06   1.485590755001061E-06
   1.523198637867226E-06   1.561758567480058E-06   1.601294644948947E-06
   1.641831581502245E-06   1.683394713932326E-06   1.726010020431620E-06
   1.769704136829531E-06   1.814504373240395E-06   1.860438731132855E-06
   1.907535920831349E-06   1.955825379460638E-06   2.005337289344580E-06
   2.056102596870675E-06   2.108153031832148E-06   2.161521127259640E-06
   2.216240239754972E-06   2.272344570339602E-06   2.329869185830874E-06
   2.388850040759380E-06   2.449323999841130E-06   2.511328861018634E-06
   2.574903379085185E-06   2.640087289907236E-06   2.706921335259901E-06
   2.775447288291172E-06   2.845707979630732E-06   2.917747324159671E-06
   2.991610348457893E-06   3.067343218946298E-06   3.144993270741356E-06
   3.224609037240119E-06   3.306240280454137E-06   3.389938022111266E-06
   3.475754575544740E-06   3.563743578389530E-06   3.653960026106342E-06
   3.746460306354227E-06   3.841302234233350E-06   3.938545088419803E-06
   4.038249648215197E-06   4.140478231534059E-06   4.245294733852869E-06
   4.352764668145024E-06   4.462955205826690E-06   4.575935218739082E-06
   4.691775322193011E-06   4.810547919104667E-06   4.932327245247101E-06
   5.057189415647419E-06   5.185212472158672E-06   5.316476432235899E-06
   5.451063338946732E-06   5.589057312248169E-06   5.730544601561085E-06
   5.875613639675666E-06   6.024355098021440E-06   6.176861943336128E-06
   6.333229495769267E-06   6.493555488456269E-06   6.657940128600690E-06
   6.826486160102614E-06   6.999298927772213E-06   7.176486443168930E-06
   7.358159452107038E-06   7.544431503870006E-06   7.735419022176911E-06
   7.931241377944912E-06   8.132020963894020E-06   8.337883271039671E-06
   8.548956967121960E-06   8.765373977019870E-06   8.987269565200935E-06
   9.214782420257997E-06   9.448054741585586E-06   9.687232328250309E-06
   9.932464670110755E-06   1.018390504124364E-05   1.044171059573490E-05
   1.070604246589512E-05   1.097706586296122E-05   1.125495018034690E-05
   1.153986909950629E-05   1.183200069847750E-05   1.213152756317312E-05
   1.243863690148782E-05   1.275352066029404E-05   1.307637564539871E-05
   1.340740364453659E-05   1.374681155347599E-05   1.409481150531682E-05
   1.445162100306090E-05   1.481746305553760E-05   1.519256631676993E-05
   1.557716522886768E-05   1.597150016853732E-05   1.637581759730001E-05
   1.679037021551128E-05   1.721541712027921E-05   1.765122396737887E-05
   1.809806313726494E-05   1.855621390528601E-05   1.902596261620630E-05
   1.950760286314469E-05   2.000143567104207E-05   2.050776968477201E-05
   2.102692136201220E-05   2.155921517099667E-05   2.210498379327305E-05
   2.266456833159066E-05   2.323831852304983E-05   2.382659295764546E-05
   2.442975930234088E-05   2.504819453081255E-05   2.568228515900844E-05
   2.633242748666759E-05   2.699902784495156E-05   2.768250285034203E-05
   2.838327966496384E-05   2.910179626349485E-05   2.983850170683049E-05
   3.059385642267305E-05   3.136833249322078E-05   3.216241395013701E-05
   3.297659707698304E-05   3.381139071930334E-05   3.466731660255710E-05
   3.554490965809429E-05   3.644471835737976E-05   3.736730505467341E-05
   3.831324633838177E-05   3.928313339129840E-05   4.027757235995908E-05
   4.129718473334218E-05   4.234260773114987E-05   4.341449470191320E-05
   4.451351553116919E-05   4.564035705996392E-05   4.679572351394385E-05
   4.798033694330226E-05   4.919493767385530E-05   5.044028476952977E-05
   5.171715650654937E-05   5.302635085961774E-05   5.436868600039870E-05
   5.574500080860693E-05   5.715615539602648E-05   5.860303164378408E-05
   6.008653375321232E-05   6.160758881064650E-05   6.316714736650633E-05
   6.476618402902507E-05   6.640569807299513E-05   6.808671406390811E-05
   6.981028249788209E-05   7.157748045777150E-05   7.338941228587003E-05
   7.524721027362633E-05   7.715203536879941E-05   7.910507790049822E-05
   8.110755832255439E-05   8.316072797569241E-05   8.526586986897160E-05
   8.742429948098563E-05   8.963736558132096E-05   9.190645107278363E-05
   9.423297385491925E-05   9.661838770936508E-05   9.906418320758287E-05
   1.015718886415404E-04   1.041430709779185E-04   1.067793368364395E-04
   1.094823334929246E-04   1.122537499077032E-04   1.150953177800177E-04
   1.180088126290758E-04   1.209960549024247E-04   1.240589111123363E-04
   1.271992950009086E-04   1.304191687346105E-04   1.337205441290109E-04
   1.371054839044517E-04   1.405761029734496E-04   1.441345697606215E-04
   1.477831075559573E-04   1.515239959022800E-04   1.553595720177526E-04
   1.592922322543207E-04   1.633244335929874E-04   1.674586951768596E-04
   1.716975998829086E-04   1.760437959334233E-04   1.804999985481599E-04
   1.850689916382041E-04   1.897536295426065E-04   1.945568388088603E-04
   1.994816200183307E-04   2.045310496577638E-04   2.097082820380346E-04
   2.150165512613290E-04   2.204591732379697E-04   2.260395477541420E-04
   2.317611605917979E-04   2.376275857020462E-04   2.436424874333829E-04
   2.498096228161323E-04   2.561328439045149E-04   2.626161001777948E-04
   2.692634410019810E-04   2.760790181536130E-04   2.830670884071892E-04
   2.902320161878308E-04   2.975782762908240E-04   3.051104566697237E-04
   3.128332612947227E-04   3.207515130830723E-04   3.288701569033454E-04
   3.371942626553997E-04   3.457290284279409E-04   3.544797837356116E-04
   3.634519928377367E-04   3.726512581402847E-04   3.820833236840636E-04
   3.917540787203718E-04   4.016695613765305E-04   4.118359624141064E-04
   4.222596290814075E-04   4.329470690630614E-04   4.439049545289054E-04
   4.551401262846352E-04   4.666595980271339E-04   4.784705607065681E-04
   4.905803869982448E-04   5.029966358867810E-04   5.157270573657261E-04
   5.287795972551391E-04   5.421624021401593E-04   5.558838244336807E-04
   5.699524275663919E-04   5.843769913067527E-04   5.991665172146853E-04
   6.143302342325408E-04   6.298776044156140E-04   6.458183288070391E-04
   6.621623534599952E-04   6.789198756104595E-04   6.961013500053160E-04
   7.137174953887968E-04   7.317793011512215E-04   7.502980341450451E-04
   7.692852456705504E-04   7.887527786375329E-04   8.087127749055682E-04
   8.291776828079559E-04   8.501602648645039E-04   8.716736056864504E-04
   8.937311200794922E-04   9.163465613492060E-04   9.395340298139241E-04
   9.633079815303429E-04   9.876832372368283E-04   1.012674991520235E-03
   1.038298822211101E-03   1.064570700013375E-03   1.091506998374128E-03
   1.119124503599332E-03   1.147440425221501E-03   1.176472406625678E-03
   1.206238535939617E-03   1.236757357195263E-03   1.268047881767553E-03
   1.300129600097610E-03   1.333022493707079E-03   1.366747047511441E-03
   1.401324262437750E-03   1.436775668356277E-03   1.473123337333127E-03
   1.510389897210172E-03   1.548598545522291E-03   1.587773063758283E-03
   1.627937831975347E-03   1.669117843774585E-03   1.711338721646437E-03
   1.754626732695092E-03   1.799008804751051E-03   1.844512542881025E-03
   1.891166246304301E-03   1.938998925726556E-03   1.988040321099426E-03
   2.038320919817232E-03   2.089871975360427E-03   2.142725526397239E-03
   2.196914416354055E-03   2.252472313464518E-03   2.309433731311102E-03
   2.367834049868309E-03   2.427709537060187E-03   2.489097370845642E-03
   2.552035661841408E-03   2.616563476497615E-03   2.682720860836310E-03
   2.750548864769255E-03   2.820089567005724E-03   2.891386100564619E-03
   2.964482678906997E-03   3.039424622699467E-03   3.116258387226854E-03
   3.195031590465619E-03   3.275793041836437E-03   3.358592771648948E-03
   3.443482061255451E-03   3.530513473929015E-03   3.619740886483968E-03
   3.711219521653355E-03   3.805005981241166E-03   3.901158280068289E-03
   3.999735880726908E-03   4.100799729163662E-03   4.204412291109405E-03
   4.310637589372281E-03   4.419541242017742E-03   4.531190501448026E-03
   4.645654294407645E-03   4.763003262930332E-03   4.883309806249393E-03
   5.006648123691507E-03   5.133094258576155E-03   5.262726143140715E-03
   5.395623644513253E-03   5.531868611754521E-03   5.671544923994067E-03
   5.814738539677763E-03   5.961537546956790E-03   6.112032215233289E-03
   6.266315047894426E-03   6.424480836251522E-03   6.586626714714356E-03
   6.752852217220090E-03   6.923259334945196E-03   7.097952575323328E-03
   7.277039022396114E-03   7.460628398519660E-03   7.648833127456024E-03
   7.841768398872359E-03   8.039552234275318E-03   8.242305554408724E-03
   8.450152248136968E-03   8.663219242844172E-03   8.881636576375510E-03
   9.105537470545065E-03   9.335058406240678E-03   9.570339200150033E-03
   9.811523083135740E-03   1.005875678028733E-02   1.031219059267527E-02
   1.057197848083626E-02   1.083827815001279E-02   1.111125113717796E-02
   1.139106289986829E-02   1.167788290685155E-02   1.197188473065606E-02
   1.227324614198613E-02   1.258214920604770E-02   1.289878038080984E-02
   1.322333061722532E-02   1.355599546143255E-02   1.389697515896231E-02
   1.424647476097069E-02   1.460470423251775E-02   1.497187856291306E-02
   1.534821787814566E-02   1.573394755541561E-02   1.612929833978519E-02
   1.653450646295982E-02   1.694981376421876E-02   1.737546781349885E-02
   1.781172203664797E-02   1.825883584285120E-02   1.871707475423735E-02
   1.918671053766802E-02   1.966802133871118E-02   2.016129181779521E-02
   2.066681328854107E-02   2.118488385826354E-02   2.171580857063024E-02
   2.225989955046425E-02   2.281747615067337E-02   2.338886510128105E-02
   2.397440066053548E-02   2.457442476806370E-02   2.518928720003665E-02
   2.581934572630323E-02   2.646496626944713E-02   2.712652306571571E-02
   2.780439882776066E-02   2.849898490912768E-02   2.921068147042295E-02
   2.993989764707623E-02   3.068705171861746E-02   3.145257127936716E-02
   3.223689341044220E-02   3.304046485296030E-02   3.386374218232372E-02
   3.470719198344813E-02   3.557129102679265E-02   3.645652644503981E-02
   3.736339591025271E-02   3.829240781133705E-02   3.924408143160815E-02
   4.021894712626126E-02   4.121754649952085E-02   4.224043258123116E-02
   4.328817000263676E-02   4.436133517107820E-02   4.546051644331648E-02
   4.658631429717688E-02   4.773934150118274E-02   4.892022328183163E-02
   5.012959748814014E-02   5.136811475306349E-02   5.263643865137198E-02
   5.393524585353544E-02   5.526522627515131E-02   5.662708322140906E-02
   5.802153352606784E-02   5.944930768438660E-02   6.091114997941439E-02
   6.240781860101678E-02   6.394008575697953E-02   6.550873777549052E-02
   6.711457519826801E-02   6.875841286355908E-02   7.044107997819352E-02
   7.216342017783306E-02   7.392629157451187E-02   7.573056679051592E-02
   7.757713297760363E-02   7.946689182051396E-02   8.140075952365947E-02
   8.337966677984386E-02   8.540455871979093E-02   8.747639484120685E-02
   8.959614891604159E-02   9.176480887454852E-02   9.398337666467541E-02
   9.625286808525682E-02   9.857431259139729E-02   1.009487530703769E-01
   1.033772455863195E-01   1.058608590917989E-01   1.084006751044729E-01
   1.109977873467557E-01   1.136533013464500E-01   1.163683339961843E-01
   1.191440130693960E-01   1.219814766905289E-01   1.248818727570037E-01
   1.278463583104371E-01   1.308760988544834E-01   1.339722676165740E-01
   1.371360447507304E-01   1.403686164785272E-01   1.436711741651778E-01
   1.470449133276077E-01   1.504910325712814E-01   1.540107324524439E-01
   1.576052142623306E-01   1.612756787297922E-01   1.650233246386858E-01
   1.688493473562672E-01   1.727549372687385E-01   1.767412781199792E-01
   1.808095452494150E-01   1.849609037248798E-01   1.891965063662229E-01
   1.935174916553569E-01   1.979249815283348E-01   2.024200790449913E-01
   2.070038659316198E-01   2.116773999920817E-01   2.164417123827302E-01
   2.212978047464671E-01   2.262466462012461E-01   2.312891701783363E-01
   2.364262711056337E-01   2.416588009313888E-01   2.469875654837046E-01
   2.524133206612691E-01   2.579367684508662E-01   2.635585527672988E-01
   2.692792551115487E-01   2.750993900431242E-01   2.810194004627823E-01
   2.870396527020591E-01   2.931604314162903E-01   2.993819342781838E-01
   3.057042664693166E-01   3.121274349673984E-01   3.186513426275964E-01
   3.252757820567336E-01   3.320004292798009E-01   3.388248371988407E-01
   3.457484288450075E-01   3.527704904254296E-01   3.598901641673196E-01
   3.671064409628271E-01   3.744181528191078E-01   3.818239651192700E-01
   3.893223687011188E-01   3.969116717619239E-01   4.045899915989684E-01
   4.123552461971511E-01   4.202051456766603E-01   4.281371836155624E-01
   4.361486282640766E-01   4.442365136694562E-01   4.523976307325910E-01
   4.606285182198494E-01   4.689254537562511E-01   4.772844448286704E-01
   4.857012198307174E-01   4.941712191838734E-01   5.026895865726694E-01
   5.112511603350335E-01   5.198504650523802E-01   5.284817033877368E-01
   5.371387482239429E-01   5.458151351579580E-01   5.545040554114287E-01
   5.631983492218471E-01   5.718904997830742E-01   5.805726278084035E-01
   5.892364867939526E-01   5.978734590648001E-01   6.064745526909394E-01
   6.150303993648815E-01   6.235312533373829E-01   6.319669915124491E-01
   6.403271148073342E-01   6.486007508876125E-01   6.567766583917175E-01
   6.648432327632260E-01   6.727885138128766E-01   6.806001951355711E-01
   6.882656355103545E-01   6.957718724136497E-01   7.031056377775246E-01
   7.102533761255935E-01   7.172012652190601E-01   7.239352393442254E-01
   7.304410153706101E-01   7.367041217051904E-01   7.427099302632515E-01
   7.484436915697283E-01   7.538905730964101E-01   7.590357009299947E-01
   7.638642048533422E-01   7.683612669072520E-01   7.725121734825466E-01
   7.763023709717902E-01   7.797175249865814E-01   7.827435831197266E-01
   7.853668412013095E-01   7.875740129638950E-01   7.893523029943288E-01
   7.906894828077601E-01   7.915739698334099E-01   7.919949090510215E-01
   7.919422569617800E-01   7.914068675176654E-01   7.903805795686710E-01
   7.888563053179745E-01   7.868281192012017E-01   7.842913465273614E-01
   7.812426511361265E-01   7.776801212391726E-01   7.736033525227173E-01
   7.690135274946892E-01   7.639134899638158E-01   7.583078134402171E-01
   7.522028621487378E-01   7.456068432485156E-01   7.385298487565214E-01
   7.309838855806345E-01   7.229828919811485E-01   7.145427387004677E-01
   7.056812129316464E-01   6.964179832399486E-01   6.867745435107545E-01
   6.767741339752520E-01   6.664416373658766E-01   6.558034482805074E-01
   6.448873138920164E-01   6.337221442327224E-01   6.223377904130913E-01
   6.107647893168859E-01   5.990340735361791E-01   5.871766455942193E-01
   5.752232158461238E-01   5.632038038549843E-01   5.511473035190610E-01
   5.390810127789862E-01   5.270301293661094E-01   5.150172147674700E-01
   5.030616293810530E-01   4.911789427238555E-01   4.793803235283560E-01
   4.676719156203346E-01   4.560558576767119E-01   4.445367776609086E-01
   4.331202942356935E-01   4.218118708280332E-01   4.106168087081867E-01
   3.995402403009868E-01   3.885871227611025E-01   3.777622318446925E-01
   3.670701561100804E-01   3.565152914798992E-01   3.461018356252938E-01
   3.358337787870486E-01   3.257149103752991E-01   3.157488102520829E-01
   3.059388449131225E-01   2.962881648166042E-01   2.867997022465484E-01
   2.774761697207198E-01   2.683200589475076E-01   2.593336403318380E-01
   2.505189630237676E-01   2.418778554982936E-01   2.334119266499817E-01
   2.251225673814654E-01   2.170109526609507E-01   2.090780440206508E-01
   2.013245924656969E-01   1.937511417615394E-01   1.863580320671607E-01
   1.791454038815583E-01   1.721132022718012E-01   1.652611813524439E-01
   1.585889089880585E-01   1.520957716929849E-01   1.457809797049750E-01
   1.396435722120727E-01   1.336824227147329E-01   1.278962445077177E-01
   1.222835962686515E-01   1.168428877422049E-01   1.115723855106676E-01
   1.064702188431406E-01   1.015343856167284E-01   9.676275830393974E-02
   9.215309002103868E-02   8.770302063234481E-02   8.341008290549445E-02
   7.927170871248647E-02   7.528523527096474E-02   7.144791141969052E-02
   6.775690392155015E-02   6.420930378676847E-02   6.080213260828166E-02
   5.753234890049148E-02   5.439685443190486E-02   5.139250054147153E-02
   4.851609442779364E-02   4.576440539980376E-02   4.313417107700684E-02
   4.062210352696734E-02   3.822489532739870E-02   3.593922553999058E-02
   3.376176558298483E-02   3.168918498949225E-02   2.971815703862684E-02
   2.784536424671948E-02   2.606750370615916E-02   2.438129225979195E-02
   2.278347149928080E-02   2.127081257639092E-02   1.984012081680522E-02
   1.848824012679050E-02   1.721205718381723E-02   1.600850540307828E-02
   1.487456867274767E-02   1.380728485175865E-02   1.280374902485776E-02
   1.186111651069520E-02   1.097660561973719E-02   1.014750015982341E-02
   9.371151688234908E-03   8.644981510176597E-03   7.966482424607575E-03
   7.333220219363062E-03   6.742834918498837E-03   6.193041785744665E-03
   5.681632088872190E-03   5.206473630659624E-03   4.765511052964239E-03
   4.356765921191074E-03   3.978336597166698E-03   3.628397909088097E-03
   3.305200627814976E-03   3.007070759306694E-03   2.732408663471099E-03
   2.479688010089802E-03   2.247454582812578E-03   2.034324942472107E-03
   1.838984961159369E-03   1.660188238620661E-03   1.496754412590360E-03
   1.347567374661188E-03   1.211573403217810E-03   1.087779224822658E-03
   9.752500152479958E-04   8.731073510985067E-04   7.805271226677900E-04
   6.967374183239307E-04   6.210163903277205E-04   5.526901115566359E-04
   4.911304321425226E-04   4.357528445357795E-04   3.860143649882277E-04
   3.414114389053967E-04   3.014778769613659E-04   2.657828283000275E-04
   2.339287965702887E-04   2.055497039635738E-04   1.803090078442895E-04
   1.578978739916694E-04   1.380334099084175E-04   1.204569611013909E-04
   1.049324727054736E-04   9.124491830680210E-05   7.919879732830543E-05
   6.861670187148390E-05   5.933795346554040E-05   5.121730976009711E-05
   4.412374081217252E-05   3.793927426291298E-05   3.255790837548743E-05
   2.788459161298161E-05   2.383426717416389E-05   2.033098067545343E-05
   1.730704896884293E-05   1.470228791719317E-05   1.246329680928376E-05
   1.054279698611776E-05   8.899022165901661E-06   7.495157896364185E-06
   6.298827528014255E-06   5.281622088843095E-06   4.418671448043041E-06
   3.688254181689393E-06   3.071443595126682E-06   2.551787413128359E-06
   2.115018717887883E-06   1.748795794715894E-06   1.442468634184630E-06
   1.186869935671509E-06   9.741285591882739E-07   7.975034785179817E-07
   6.512363976032952E-07   5.304213025341564E-07   4.308893321880075E-07
   3.491074605200821E-07   2.820895917465669E-07   2.273187753931038E-07
   1.826793506981384E-07   1.463979285833676E-07   1.169922138606062E-07
   9.322676016841410E-08   7.407483505222651E-08   5.868565243712313E-08
   4.635630439224430E-08   3.650779352211412E-08   2.866463157853176E-08
   2.243752905831753E-08   1.750875477510590E-08   1.361979384461376E-08
   1.056097741076957E-08   8.162797997435489E-09   6.288660847548282E-09
   4.828854270465185E-09   3.695551127668964E-09   2.818679417049957E-09
   2.142522734723891E-09   1.622931463013912E-09   1.225043107514209E-09
   9.214255279243228E-10   6.905701068873094E-10   5.156733948302966E-10
   3.836556585584086E-10   2.843732337132200E-10   2.099888075140225E-10
   1.544698946534306E-10   1.131909572493984E-10   8.261898658303729E-11
   6.006602368402990E-11   4.349514866660417E-11   3.136900424736272E-11
   2.253201536859422E-11   1.611919262585953E-11   1.148582156192661E-11
   8.153494063132402E-12   5.768876127545071E-12   4.072365925305809E-12
   2.874409672948247E-12   2.019823343623375E-12   1.412917553406104E-12
   9.838627403405923E-13   6.819329820946475E-13   4.704497844984381E-13
   3.230158469015107E-13   2.207026990504124E-13   1.500657447987172E-13
   1.015357543823450E-13   6.835857575550692E-14   4.579059779942669E-14
   3.051696280433404E-14   2.023298826753500E-14   1.334455712959539E-14
   8.754776180287996E-15   5.712860893829881E-15   3.707665778814724E-15
   2.393073703491818E-15   1.535995710289714E-15   9.803290009589240E-16
   6.221150698245052E-16   3.925141631972084E-16   2.462033768054388E-16
   1.535163606411645E-16   9.514913348768313E-17   5.861538663463444E-17
   3.588738030730929E-17   2.183541698997489E-17   1.320190772283024E-17
   7.931088507657528E-18   4.733853326199092E-18   2.807031287609208E-18
   1.653462217623333E-18   9.674299427352832E-19   5.621939999367059E-19
   3.244569350391494E-19   1.859492214203419E-19   1.058180892191892E-19
   5.978813877127143E-20   3.353671765556391E-20   1.867397698153145E-20
   1.032104498880884E-20   5.661616515547682E-21   3.082094725419758E-21
   1.664939971997587E-21   8.923927421331105E-22   4.745430168547665E-22
   2.503306178730429E-22   1.309867473009267E-22   6.797846764138837E-23
   3.498654655342479E-23   1.785545727466957E-23   9.035142409158322E-24
   4.532590697960023E-24   2.254022487146355E-24   1.111021330112835E-24
   5.427383751987021E-25   2.627323831576890E-25   1.260207228647944E-25
   5.988600389643126E-26   2.819115028891230E-26   1.314476428138114E-26
   6.070062342531784E-27   2.775754086340382E-27   1.256790215807496E-27
   5.633578727682546E-28   2.499716999582769E-28   1.097808664445382E-28
   4.771286949216446E-29   2.051920448694000E-29   8.730596511453549E-30
   3.674745937772144E-30   1.529859599932555E-30   6.298785230265526E-31
   2.564379809565956E-31   1.032207037978061E-31   4.107220550929159E-32
   1.615336532000310E-32   6.278386351972947E-33   2.411229446773236E-33
   9.148905790358123E-34   3.429049084512013E-34   1.269361025308412E-34
   4.640188976784920E-35   0.000000000000000E+00   0.000000000000000E+00
   0.000000000000000E+00   0.000000000000000E+00   0.000000000000000E+00
   0.000000000000000E+00   0.000000000000000E+00   0.000000000000000E+00
   0.000000000000000E+00   0.000000000000000E+00   0.000000000000000E+00
   0.000000000000000E+00   0.000000000000000E+00   0.000000000000000E+00
   0.000000000000000E+00   0.000000000000000E+00   0.000000000000000E+00
   0.000000000000000E+00   0.000000000000000E+00   0.000000000000000E+00
   0.000000000000000E+00   0.000000000000000E+00   0.000000000000000E+00
   0.000000000000000E+00   0.000000000000000E+00   0.000000000000000E+00
   0.000000000000000E+00   0.000000000000000E+00   0.000000000000000E+00
   0.000000000000000E+00   0.000000000000000E+00   0.000000000000000E+00
   0.000000000000000E+00   0.000000000000000E+00   0.000000000000000E+00
   0.000000000000000E+00   0.000000000000000E+00   0.000000000000000E+00
   0.000000000000000E+00   0.000000000000000E+00   0.000000000000000E+00
   0.000000000000000E+00   0.000000000000000E+00   0.000000000000000E+00
   0.000000000000000E+00   0.000000000000000E+00   0.000000000000000E+00
   0.000000000000000E+00   0.000000000000000E+00   0.000000000000000E+00
   0.000000000000000E+00   0.000000000000000E+00   0.000000000000000E+00
   0.000000000000000E+00   0.000000000000000E+00   0.000000000000000E+00
   0.000000000000000E+00   0.000000000000000E+00   0.000000000000000E+00
   0.000000000000000E+00   0.000000000000000E+00   0.000000000000000E+00
   0.000000000000000E+00   0.000000000000000E+00   0.000000000000000E+00
   0.000000000000000E+00
    </PP_CHI.3>
  </PP_PSWFC>
  <PP_FULL_WFC number_of_wfc="4">
    <PP_AEWFC.1 index="1" label="2S" l="0">
   1.581534316239857E-03   1.601350672773225E-03   1.621415324890336E-03
   1.641731383692704E-03   1.662301741001296E-03   1.683129033987035E-03
   1.704216613401702E-03   1.725567701790371E-03   1.747185589881091E-03
   1.769073609294954E-03   1.791235133022905E-03   1.813673575937719E-03
   1.836392395310347E-03   1.859395091332356E-03   1.882685207644702E-03
   1.906266331872877E-03   1.930142096168529E-03   1.954316177757606E-03
   1.978792299495113E-03   2.003574230426555E-03   2.028665786356148E-03
   2.054070830421863E-03   2.079793273677396E-03   2.105837075681143E-03
   2.132206245092245E-03   2.158904840273803E-03   2.185936969903337E-03
   2.213306793590566E-03   2.241018522502610E-03   2.269076419996673E-03
   2.297484802260324E-03   2.326248038959436E-03   2.355370553893879E-03
   2.384856825661063E-03   2.414711388327406E-03   2.444938832107833E-03
   2.475543804053379E-03   2.506531008747002E-03   2.537905209007691E-03
   2.569671226602969E-03   2.601833942969875E-03   2.634398299944533E-03
   2.667369300500390E-03   2.700752009495236E-03   2.734551554427091E-03
   2.768773126199066E-03   2.803421979893291E-03   2.838503435554016E-03
   2.874022878979992E-03   2.909985762526220E-03   2.946397605915182E-03
   2.983263997057656E-03   3.020590592883234E-03   3.058383120180612E-03
   3.096647376447810E-03   3.135389230752389E-03   3.174614624601795E-03
   3.214329572823941E-03   3.254540164458124E-03   3.295252563656403E-03
   3.336473010595554E-03   3.378207822399698E-03   3.420463394073735E-03
   3.463246199447695E-03   3.506562792132118E-03   3.550419806484591E-03
   3.594823958587555E-03   3.639782047237493E-03   3.685300954945651E-03
   3.731387648950371E-03   3.778049182241199E-03   3.825292694594864E-03
   3.873125413623273E-03   3.921554655833629E-03   3.970587827700816E-03
   4.020232426752173E-03   4.070496042664781E-03   4.121386358375401E-03
   4.172911151203181E-03   4.225078293985290E-03   4.277895756225579E-03
   4.331371605256423E-03   4.385514007413880E-03   4.440331229226288E-03
   4.495831638616448E-03   4.552023706117538E-03   4.608916006102866E-03
   4.666517218029638E-03   4.724836127696857E-03   4.783881628517507E-03
   4.843662722805151E-03   4.904188523075094E-03   4.965468253360262E-03
   5.027511250541924E-03   5.090326965695413E-03   5.153924965450992E-03
   5.218314933370011E-03   5.283506671336498E-03   5.349510100964334E-03
   5.416335265020174E-03   5.483992328862236E-03   5.552491581895139E-03
   5.621843439040919E-03   5.692058442226386E-03   5.763147261886974E-03
   5.835120698487224E-03   5.907989684058076E-03   5.981765283751109E-03
   6.056458697409876E-03   6.132081261158518E-03   6.208644449007777E-03
   6.286159874478598E-03   6.364639292243445E-03   6.444094599785508E-03
   6.524537839075966E-03   6.605981198269430E-03   6.688437013417758E-03
   6.771917770202382E-03   6.856436105685318E-03   6.942004810078992E-03
   7.028636828535078E-03   7.116345262952475E-03   7.205143373804593E-03
   7.295044581986111E-03   7.386062470679360E-03   7.478210787240491E-03
   7.571503445105577E-03   7.665954525716837E-03   7.761578280469094E-03
   7.858389132676662E-03   7.956401679560804E-03   8.055630694257918E-03
   8.156091127848609E-03   8.257798111407798E-03   8.360766958076027E-03
   8.465013165152111E-03   8.570552416207300E-03   8.677400583221081E-03
   8.785573728738791E-03   8.895088108051194E-03   9.005960171396134E-03
   9.118206566182476E-03   9.231844139236414E-03   9.346889939070327E-03
   9.463361218174350E-03   9.581275435330709E-03   9.700650257951094E-03
   9.821503564437090E-03   9.943853446563865E-03   1.006771821188722E-02
   1.019311638617420E-02   1.032006671585722E-02   1.044858817051212E-02
   1.057869994535997E-02   1.071042146379295E-02   1.084377237992435E-02
   1.097877258116281E-02   1.111544219081093E-02   1.125380157068833E-02
   1.139387132377929E-02   1.153567229690509E-02   1.167922558342108E-02
   1.182455252593869E-02   1.197167471907235E-02   1.212061401221144E-02
   1.227139251231746E-02   1.242403258674631E-02   1.257855686609593E-02
   1.273498824707924E-02   1.289334989542254E-02   1.305366524878932E-02
   1.321595801972966E-02   1.338025219865516E-02   1.354657205683945E-02
   1.371494214944446E-02   1.388538731857217E-02   1.405793269634224E-02
   1.423260370799525E-02   1.440942607502161E-02   1.458842581831624E-02
   1.476962926135897E-02   1.495306303342051E-02   1.513875407279420E-02
   1.532672963005326E-02   1.551701727133371E-02   1.570964488164274E-02
   1.590464066819255E-02   1.610203316375964E-02   1.630185123006926E-02
   1.650412406120522E-02   1.670888118704465E-02   1.691615247671791E-02
   1.712596814209314E-02   1.733835874128573E-02   1.755335518219223E-02
   1.777098872604864E-02   1.799129099101300E-02   1.821429395577191E-02
   1.844002996317091E-02   1.866853172386838E-02   1.889983232001289E-02
   1.913396520894355E-02   1.937096422691321E-02   1.961086359283421E-02
   1.985369791204632E-02   2.009950218010663E-02   2.034831178660098E-02
   2.060016251897659E-02   2.085509056639553E-02   2.111313252360864E-02
   2.137432539484939E-02   2.163870659774735E-02   2.190631396726078E-02
   2.217718575962781E-02   2.245136065633571E-02   2.272887776810778E-02
   2.300977663890720E-02   2.329409724995742E-02   2.358188002377819E-02
   2.387316582823700E-02   2.416799598061489E-02   2.446641225168612E-02
   2.476845686981103E-02   2.507417252504117E-02   2.538360237323607E-02
   2.569679004019074E-02   2.601377962577313E-02   2.633461570807062E-02
   2.665934334754460E-02   2.698800809119226E-02   2.732065597671464E-02
   2.765733353668968E-02   2.799808780274959E-02   2.834296630976105E-02
   2.869201710000737E-02   2.904528872737135E-02   2.940283026151749E-02
   2.976469129207258E-02   3.013092193280292E-02   3.050157282578730E-02
   3.087669514558392E-02   3.125634060339003E-02   3.164056145119269E-02
   3.202941048590920E-02   3.242294105351535E-02   3.282120705316014E-02
   3.322426294126501E-02   3.363216373560592E-02   3.404496501937640E-02
   3.446272294522972E-02   3.488549423929813E-02   3.531333620518734E-02
   3.574630672794391E-02   3.618446427799356E-02   3.662786791504827E-02
   3.707657729197960E-02   3.753065265865614E-02   3.799015486574254E-02
   3.845514536845769E-02   3.892568623028934E-02   3.940184012666262E-02
   3.988367034855973E-02   4.037124080608791E-02   4.086461603199276E-02
   4.136386118511404E-02   4.186904205378081E-02   4.238022505914270E-02
   4.289747725843408E-02   4.342086634816782E-02   4.395046066725512E-02
   4.448632920004790E-02   4.502854157930006E-02   4.557716808904393E-02
   4.613227966737788E-02   4.669394790916140E-02   4.726224506861322E-02
   4.783724406180859E-02   4.841901846907118E-02   4.900764253725529E-02
   4.960319118191380E-02   5.020573998934710E-02   5.081536521852833E-02
   5.143214380289983E-02   5.205615335203598E-02   5.268747215316685E-02
   5.332617917255773E-02   5.397235405673874E-02   5.462607713357907E-02
   5.528742941319993E-02   5.595649258872049E-02   5.663334903683045E-02
   5.731808181818328E-02   5.801077467760344E-02   5.871151204410129E-02
   5.942037903068875E-02   6.013746143398892E-02   6.086284573363249E-02
   6.159661909143374E-02   6.233886935033866E-02   6.308968503313760E-02
   6.384915534093452E-02   6.461737015136501E-02   6.539442001655460E-02
   6.618039616080934E-02   6.697539047802949E-02   6.777949552883814E-02
   6.859280453741506E-02   6.941541138802711E-02   7.024741062124523E-02
   7.108889742983870E-02   7.193996765433650E-02   7.280071777824561E-02
   7.367124492291599E-02   7.455164684204139E-02   7.544202191578533E-02
   7.634246914452074E-02   7.725308814217224E-02   7.817397912914920E-02
   7.910524292485749E-02   8.004698093977804E-02   8.099929516709958E-02
   8.196228817389264E-02   8.293606309181195E-02   8.392072360731401E-02
   8.491637395137577E-02   8.592311888870109E-02   8.694106370640016E-02
   8.797031420212777E-02   8.901097667166538E-02   9.006315789593186E-02
   9.112696512740741E-02   9.220250607595486E-02   9.328988889402208E-02
   9.438922216120932E-02   9.550061486818429E-02   9.662417639992790E-02
   9.776001651829351E-02   9.890824534386101E-02   1.000689733370685E-01
   1.012423112786019E-01   1.024283702490246E-01   1.036272616076269E-01
   1.048390969704760E-01   1.060639881876462E-01   1.073020473196087E-01
   1.085533866127614E-01   1.098181184740748E-01   1.110963554448349E-01
   1.123882101734598E-01   1.136937953873676E-01   1.150132238638726E-01
   1.163466084000873E-01   1.176940617818051E-01   1.190556967513410E-01
   1.204316259743047E-01   1.218219620052810E-01   1.232268172523940E-01
   1.246463039407259E-01   1.260805340745672E-01   1.275296193984701E-01
   1.289936713570782E-01   1.304728010537047E-01   1.319671192076317E-01
   1.334767361101011E-01   1.350017615789698E-01   1.365423049119973E-01
   1.380984748387396E-01   1.396703794710150E-01   1.412581262519141E-01
   1.428618219033224E-01   1.444815723719227E-01   1.461174827736466E-01
   1.477696573365423E-01   1.494381993420260E-01   1.511232110644830E-01
   1.528247937091859E-01   1.545430473484956E-01   1.562780708563089E-01
   1.580299618407215E-01   1.597988165748666E-01   1.615847299258976E-01
   1.633877952820757E-01   1.652081044779286E-01   1.670457477174407E-01
   1.689008134952409E-01   1.707733885157483E-01   1.726635576102378E-01
   1.745714036517905E-01   1.764970074680862E-01   1.784404477520037E-01
   1.804018009699865E-01   1.823811412681368E-01   1.843785403759980E-01
   1.863940675079856E-01   1.884277892624275E-01   1.904797695181731E-01
   1.925500693287316E-01   1.946387468138996E-01   1.967458570488358E-01
   1.988714519505466E-01   2.010155801617365E-01   2.031782869319891E-01
   2.053596139962332E-01   2.075595994504570E-01   2.097782776246289E-01
   2.120156789527852E-01   2.142718298402450E-01   2.165467525279121E-01
   2.188404649536256E-01   2.211529806105191E-01   2.234843084023508E-01
   2.258344524957648E-01   2.282034121694479E-01   2.305911816601427E-01
   2.329977500054810E-01   2.354231008836013E-01   2.378672124495157E-01
   2.403300571681900E-01   2.428116016443043E-01   2.453118064486610E-01
   2.478306259412081E-01   2.503680080906459E-01   2.529238942905889E-01
   2.554982191722530E-01   2.580909104136404E-01   2.607018885451972E-01
   2.633310667519178E-01   2.659783506718739E-01   2.686436381911464E-01
   2.713268192351395E-01   2.740277755562608E-01   2.767463805179500E-01
   2.794824988750421E-01   2.822359865504546E-01   2.850066904081879E-01
   2.877944480226323E-01   2.905990874441763E-01   2.934204269611150E-01
   2.962582748578591E-01   2.991124291694476E-01   3.019826774323706E-01
   3.048687964317143E-01   3.077705519446373E-01   3.106876984801997E-01
   3.136199790155605E-01   3.165671247285709E-01   3.195288547267895E-01
   3.225048757729527E-01   3.254948820069353E-01   3.284985546642435E-01
   3.315155617910852E-01   3.345455579560680E-01   3.375881839585793E-01
   3.406430665339107E-01   3.437098180551922E-01   3.467880362322052E-01
   3.498773038071562E-01   3.529771882474900E-01   3.560872414358349E-01
   3.592069993571748E-01   3.623359817833502E-01   3.654736919549997E-01
   3.686196162610556E-01   3.717732239159208E-01   3.749339666344562E-01
   3.781012783049186E-01   3.812745746599976E-01   3.844532529461054E-01
   3.876366915910857E-01   3.908242498705134E-01   3.940152675727679E-01
   3.972090646630713E-01   4.004049409466932E-01   4.036021757315319E-01
   4.068000274902940E-01   4.099977335225035E-01   4.131945096165823E-01
   4.163895497122553E-01   4.195820255635441E-01   4.227710864026250E-01
   4.259558586048382E-01   4.291354453551485E-01   4.323089263163679E-01
   4.354753572994644E-01   4.386337699362950E-01   4.417831713551109E-01
   4.449225438592003E-01   4.480508446090438E-01   4.511670053083737E-01
   4.542699318945431E-01   4.573585042336212E-01   4.604315758206519E-01
   4.634879734855211E-01   4.665264971048983E-01   4.695459193207305E-01
   4.725449852657823E-01   4.755224122967336E-01   4.784768897353599E-01
   4.814070786183359E-01   4.843116114562243E-01   4.871890920022200E-01
   4.900380950312461E-01   4.928571661300035E-01   4.956448214986059E-01
   4.983995477644362E-01   5.011198018088873E-01   5.038040106076606E-01
   5.064505710853181E-01   5.090578499847960E-01   5.116241837526095E-01
   5.141478784404940E-01   5.166272096242425E-01   5.190604223405222E-01
   5.214457310424647E-01   5.237813195748440E-01   5.260653411696711E-01
   5.282959184630572E-01   5.304711435342029E-01   5.325890779673980E-01
   5.346477529379259E-01   5.366451693227848E-01   5.385792978371527E-01
   5.404480791975382E-01   5.422494243125746E-01   5.439812145024268E-01
   5.456413017477955E-01   5.472275089695194E-01   5.487376303397796E-01
   5.501694316259337E-01   5.515206505680084E-01   5.527889972908961E-01
   5.539721547523089E-01   5.550677792275467E-01   5.560735008321559E-01
   5.569869240835474E-01   5.578056285026608E-01   5.585271692567557E-01
   5.591490778444250E-01   5.596688628239156E-01   5.600840105858527E-01
   5.603919861714561E-01   5.605902341373391E-01   5.606761794679718E-01
   5.606472285368925E-01   5.605007701177346E-01   5.602341764461330E-01
   5.598448043335630E-01   5.593299963341463E-01   5.586870819654504E-01
   5.579133789842832E-01   5.570061947184689E-01   5.559628274555682E-01
   5.547805678894792E-01   5.534567006258272E-01   5.519885057470262E-01
   5.503732604378534E-01   5.486082406723486E-01   5.466907229628051E-01
   5.446179861715827E-01   5.423873133864191E-01   5.399959938598727E-01
   5.374413250134727E-01   5.347206145070982E-01   5.318311823740436E-01
   5.287703632221676E-01   5.255355085014469E-01   5.221239888381920E-01
   5.185331964360957E-01   5.147605475442106E-01   5.108034849918591E-01
   5.066594807903944E-01   5.023260388016303E-01   4.978006974726615E-01
   4.930810326366845E-01   4.881646603793284E-01   4.830492399698786E-01
   4.777324768566654E-01   4.722121257257572E-01   4.664859936219731E-01
   4.605519431310881E-01   4.544078956219690E-01   4.480518345472291E-01
   4.414818088008408E-01   4.346959361309879E-01   4.276924066062812E-01
   4.204694861332913E-01   4.130255200231875E-01   4.053589366050906E-01
   3.974682508835750E-01   3.893520682375686E-01   3.810090881577118E-01
   3.724381080190506E-01   3.636380268857400E-01   3.546078493442438E-01
   3.453466893613121E-01   3.358537741628231E-01   3.261284481293710E-01
   3.161701767042777E-01   3.059785503095079E-01   2.955532882647589E-01
   2.848942427047971E-01   2.740014024899146E-01   2.628748971041757E-01
   2.515150005359340E-01   2.399221351349049E-01   2.280968754398927E-01
   2.160399519710895E-01   2.037522549806862E-01   1.912348381553672E-01
   1.784889222640962E-01   1.655158987444490E-01   1.523173332205996E-01
   1.388949689459320E-01   1.252507301631214E-01   1.113867253744100E-01
   9.730525051469717E-02   8.300879201996429E-02   6.850002978346866E-02
   5.378183999206275E-02   3.885729783492815E-02   2.372968007695428E-02
   8.402467488942460E-03  -7.120652873226949E-03  -2.283578554836203E-02
  -3.873882471658961E-02  -5.482545242080204E-02  -7.109113697089678E-02
  -8.753113153880550E-02  -1.041404729523294E-01  -1.209139806958175E-01
  -1.378462561257450E-01  -1.549316819092733E-01  -1.721644216938971E-01
  -1.895384200163110E-01  -2.070474024586563E-01  -2.246848760603387E-01
  -2.424441299936301E-01  -2.603182365112950E-01  -2.783000521744937E-01
  -2.963822193692196E-01  -3.145571681195177E-01  -3.328171182056976E-01
  -3.511540815956991E-01  -3.695598651976765E-01  -3.880260739417457E-01
  -4.065441141986627E-01  -4.251051975429869E-01  -4.437003448680055E-01
  -4.623203908593619E-01  -4.809559888339299E-01  -4.995976159500066E-01
  -5.182355787943617E-01  -5.368600193510582E-01  -5.554609213562803E-01
  -5.740281170426371E-01  -5.925512942755723E-01  -6.110200040836095E-01
  -6.294236685831791E-01  -6.477515892977374E-01  -6.659929558697864E-01
  -6.841368551632490E-01  -7.021722807524514E-01  -7.200881427927164E-01
  -7.378732782662938E-01  -7.555164615960422E-01  -7.730064156179423E-01
  -7.903318229021778E-01  -8.074813374111636E-01  -8.244435964815440E-01
  -8.412072331158361E-01  -8.577608885680535E-01  -8.740932252063288E-01
  -8.901929396342608E-01  -9.060487760514542E-01  -9.216495398324919E-01
  -9.369841113024110E-01  -9.520414596856160E-01  -9.668106572040988E-01
  -9.812808932998157E-01  -9.954414889551334E-01  -1.009281911084374E+00
  -1.022791786968692E+00  -1.035960918705802E+00  -1.048779297645424E+00
  -1.061237118780791E+00  -1.073324795066076E+00  -1.085032971629259E+00
  -1.096352539849677E+00  -1.107274651269334E+00  -1.117790731306981E+00
  -1.127892492744031E+00  -1.137571948951493E+00  -1.146821426827370E+00
  -1.155633579414310E+00  -1.164001398167762E+00  -1.171918224845434E+00
  -1.179377762989521E+00  -1.186374088973917E+00  -1.192901662589488E+00
  -1.198955337141418E+00  -1.204530369033695E+00  -1.209622426816910E+00
  -1.214227599676732E+00  -1.218342405341747E+00  -1.221963797390629E+00
  -1.225089171940078E+00  -1.227716373696399E+00  -1.229843701355112E+00
  -1.231469912334569E+00  -1.232594226831124E+00  -1.233216331185042E+00
  -1.233336380547992E+00  -1.232955000844613E+00  -1.232073290022321E+00
  -1.230692818585193E+00  -1.228815629409430E+00  -1.226444236839528E+00
  -1.223581625065920E+00  -1.220231245786448E+00  -1.216397015155558E+00
  -1.212083310026649E+00  -1.207294963494445E+00  -1.202037259745701E+00
  -1.196315928227870E+00  -1.190137137146684E+00  -1.183507486304803E+00
  -1.176433999294843E+00  -1.168924115061203E+00  -1.160985678846081E+00
  -1.152626932536047E+00  -1.143856504426377E+00  -1.134683398421151E+00
  -1.125116982687834E+00  -1.115166977785696E+00  -1.104843444288012E+00
  -1.094156769918481E+00  -1.083117656222742E+00  -1.071737104796276E+00
  -1.060026403090275E+00  -1.047997109817372E+00  -1.035661039979328E+00
  -1.023030249539009E+00  -1.010117019759092E+00  -9.969338412301259E-01
  -9.834933976106398E-01  -9.698085491021193E-01  -9.558923156817316E-01
  -9.417578601157781E-01  -9.274184707769310E-01  -9.128875442883994E-01
  -8.981785680151778E-01  -8.833051024432466E-01  -8.682807634312903E-01
  -8.531192044015078E-01  -8.378340984699975E-01  -8.224391205459118E-01
  -8.069479294237579E-01  -7.913741498935282E-01  -7.757313548936752E-01
  -7.600330477323697E-01  -7.442926444026073E-01  -7.285234560012668E-01
  -7.127386714916556E-01  -6.969513392835841E-01  -6.811743538230717E-01
  -6.654204323507955E-01  -6.497020953225574E-01  -6.340316544357673E-01
  -6.184211993271752E-01  -6.028825823876793E-01  -5.874274035839638E-01
  -5.720669956883826E-01  -5.568124099485096E-01  -5.416744022285446E-01
  -5.266634196550725E-01  -5.117895877999893E-01  -4.970626984336715E-01
  -4.824921978816077E-01  -4.680871760177732E-01  -4.538563559279503E-01
  -4.398080842759780E-01  -4.259503224055307E-01  -4.122906382094401E-01
  -3.988361987977749E-01  -3.855937639948315E-01  -3.725696806938462E-01
  -3.597698780965631E-01  -3.471998638627692E-01  -3.348647211924696E-01
  -3.227691068605305E-01  -3.109172502202953E-01  -2.993129531888949E-01
  -2.879595912227055E-01  -2.768601152866610E-01  -2.660170548159483E-01
  -2.554325216630307E-01  -2.451082150170493E-01  -2.350454272765305E-01
  -2.252450508501014E-01  -2.157075858537283E-01  -2.064331486669865E-01
  -1.974214813052052E-01  -1.886719615591679E-01  -1.801836138495082E-01
  -1.719551207391696E-01  -1.639848350443544E-01  -1.562707924823523E-01
  -1.488107247935104E-01  -1.416020732743669E-01  -1.346420026595637E-01
  -1.279274152914782E-01  -1.214549655184759E-01  -1.152210742651350E-01
  -1.092219437206092E-01  -1.034535720943463E-01  -9.791176839153982E-02
  -9.259216716385135E-02  -8.749024319401866E-02  -8.260132607588741E-02
  -7.792061465412510E-02  -7.344319129037018E-02  -6.916403592482206E-02
  -6.507803990429915E-02  -6.118001954959233E-02  -5.746472943655161E-02
  -5.392687536678852E-02  -5.056112700519477E-02  -4.736213016269864E-02
  -4.432451870384219E-02  -4.144292605989112E-02  -3.871199632931644E-02
  -3.612639494863423E-02  -3.368081891777690E-02  -3.137000656541174E-02
  -2.918874684093006E-02  -2.713188812120994E-02  -2.519434652171063E-02
  -2.337111370298482E-02  -2.165726416529475E-02  -2.004796202568109E-02
  -1.853846727355257E-02  -1.712414150262825E-02  -1.580045311886179E-02
  -1.456298202579477E-02  -1.340742379061120E-02  -1.232959329598248E-02
  -1.132542788458860E-02  -1.039099000496152E-02  -9.522469369008186E-03
  -8.716184633218807E-03  -7.968584617139235E-03  -7.276249074172176E-03
  -6.635889031160088E-03  -6.044346714482778E-03  -5.498595081566926E-03
  -4.995736977745190E-03  -4.533003939313365E-03  -4.107754664410725E-03
  -3.717473173987329E-03  -3.359766685621220E-03  -3.032363223306962E-03
  -2.733108986555589E-03  -2.459965502226586E-03  -2.211006582457947E-03
  -1.984415111874839E-03  -1.778479686946056E-03  -1.591591129926508E-03
  -1.422238899280338E-03  -1.269007417830819E-03  -1.130572339138213E-03
  -1.005696771774484E-03  -8.932274802533665E-04  -7.920910803957700E-04
  -7.012902458736970E-04  -6.198999415910416E-04  -5.470636984367993E-04
  -4.819899427954916E-04  -4.239483930308312E-04  -3.722665339813732E-04
  -3.263261793303542E-04  -2.855601305448735E-04  -2.494489399302860E-04
  -2.175177842218522E-04  -1.893334540444006E-04  -1.645014635184159E-04
  -1.426632832832946E-04  -1.234936992505008E-04  -1.066982984952883E-04
  -9.201108284904971E-05  -7.919220996801747E-05  -6.802586093003348E-05
  -5.831823275081385E-05  -4.989565361523721E-05  -4.260281808774366E-05
  -3.630113909838453E-05  -3.086721309629780E-05  -2.619139441876935E-05
  -2.217647463948514E-05  -1.873646243158343E-05  -1.579545930682420E-05
  -1.328662646845520E-05  -1.115123793877583E-05  -9.337815089403225E-06
  -7.801337709118811E-06  -6.502526787125380E-06  -5.407194264752926E-06
  -4.485655112307262E-06  -3.712197216108301E-06  -3.064604710158771E-06
  -2.523730553793372E-06  -2.073114337715437E-06  -1.698641492850580E-06
  -1.388240276455891E-06  -1.131613115161506E-06  -9.199990925625833E-07
  -7.459645773368814E-07  -6.032191945907284E-07  -4.864545464292677E-07
  -3.912032860362258E-07  -3.137163414919098E-07  -2.508562700290091E-07
  -2.000048994971751E-07  -1.589835807355606E-07  -1.259845317439453E-07
  -9.951190159338166E-08  -7.833131829605583E-08  -6.142681169491969E-08
  -4.796411002543007E-08  -3.725945384706182E-08  -2.875293049260028E-08
  -2.198657296208317E-08  -1.658258589612533E-08  -1.225579181056789E-08
  -8.629806274807771E-09   0.000000000000000E+00   0.000000000000000E+00
   0.000000000000000E+00   0.000000000000000E+00   0.000000000000000E+00
   0.000000000000000E+00   0.000000000000000E+00   0.000000000000000E+00
   0.000000000000000E+00   0.000000000000000E+00   0.000000000000000E+00
   0.000000000000000E+00   0.000000000000000E+00   0.000000000000000E+00
   0.000000000000000E+00   0.000000000000000E+00   0.000000000000000E+00
   0.000000000000000E+00   0.000000000000000E+00   0.000000000000000E+00
   0.000000000000000E+00   0.000000000000000E+00   0.000000000000000E+00
   0.000000000000000E+00   0.000000000000000E+00   0.000000000000000E+00
   0.000000000000000E+00   0.000000000000000E+00   0.000000000000000E+00
   0.000000000000000E+00   0.000000000000000E+00   0.000000000000000E+00
   0.000000000000000E+00   0.000000000000000E+00   0.000000000000000E+00
   0.000000000000000E+00   0.000000000000000E+00   0.000000000000000E+00
   0.000000000000000E+00   0.000000000000000E+00   0.000000000000000E+00
   0.000000000000000E+00   0.000000000000000E+00   0.000000000000000E+00
   0.000000000000000E+00   0.000000000000000E+00   0.000000000000000E+00
   0.000000000000000E+00   0.000000000000000E+00   0.000000000000000E+00
   0.000000000000000E+00   0.000000000000000E+00   0.000000000000000E+00
   0.000000000000000E+00   0.000000000000000E+00   0.000000000000000E+00
   0.000000000000000E+00   0.000000000000000E+00   0.000000000000000E+00
   0.000000000000000E+00   0.000000000000000E+00   0.000000000000000E+00
   0.000000000000000E+00   0.000000000000000E+00   0.000000000000000E+00
   0.000000000000000E+00   0.000000000000000E+00   0.000000000000000E+00
   0.000000000000000E+00   0.000000000000000E+00   0.000000000000000E+00
   0.000000000000000E+00   0.000000000000000E+00   0.000000000000000E+00
   0.000000000000000E+00   0.000000000000000E+00   0.000000000000000E+00
   0.000000000000000E+00   0.000000000000000E+00   0.000000000000000E+00
   0.000000000000000E+00   0.000000000000000E+00   0.000000000000000E+00
   0.000000000000000E+00   0.000000000000000E+00   0.000000000000000E+00
   0.000000000000000E+00   0.000000000000000E+00   0.000000000000000E+00
   0.000000000000000E+00   0.000000000000000E+00   0.000000000000000E+00
   0.000000000000000E+00   0.000000000000000E+00   0.000000000000000E+00
   0.000000000000000E+00   0.000000000000000E+00   0.000000000000000E+00
   0.000000000000000E+00   0.000000000000000E+00   0.000000000000000E+00
   0.000000000000000E+00   0.000000000000000E+00   0.000000000000000E+00
   0.000000000000000E+00   0.000000000000000E+00   0.000000000000000E+00
   0.000000000000000E+00   0.000000000000000E+00   0.000000000000000E+00
   0.000000000000000E+00   0.000000000000000E+00   0.000000000000000E+00
   0.000000000000000E+00   0.000000000000000E+00   0.000000000000000E+00
   0.000000000000000E+00   0.000000000000000E+00   0.000000000000000E+00
   0.000000000000000E+00   0.000000000000000E+00   0.000000000000000E+00
   0.000000000000000E+00   0.000000000000000E+00   0.000000000000000E+00
   0.000000000000000E+00   0.000000000000000E+00   0.000000000000000E+00
   0.000000000000000E+00   0.000000000000000E+00   0.000000000000000E+00
   0.000000000000000E+00   0.000000000000000E+00   0.000000000000000E+00
   0.000000000000000E+00   0.000000000000000E+00   0.000000000000000E+00
   0.000000000000000E+00   0.000000000000000E+00   0.000000000000000E+00
   0.000000000000000E+00   0.000000000000000E+00   0.000000000000000E+00
   0.000000000000000E+00   0.000000000000000E+00   0.000000000000000E+00
   0.000000000000000E+00   0.000000000000000E+00   0.000000000000000E+00
   0.000000000000000E+00   0.000000000000000E+00   0.000000000000000E+00
   0.000000000000000E+00   0.000000000000000E+00   0.000000000000000E+00
   0.000000000000000E+00   0.000000000000000E+00   0.000000000000000E+00
   0.000000000000000E+00   0.000000000000000E+00   0.000000000000000E+00
   0.000000000000000E+00   0.000000000000000E+00   0.000000000000000E+00
   0.000000000000000E+00   0.000000000000000E+00   0.000000000000000E+00
   0.000000000000000E+00   0.000000000000000E+00   0.000000000000000E+00
   0.000000000000000E+00   0.000000000000000E+00   0.000000000000000E+00
   0.000000000000000E+00   0.000000000000000E+00   0.000000000000000E+00
   0.000000000000000E+00   0.000000000000000E+00   0.000000000000000E+00
   0.000000000000000E+00   0.000000000000000E+00   0.000000000000000E+00
   0.000000000000000E+00   0.000000000000000E+00   0.000000000000000E+00
   0.000000000000000E+00   0.000000000000000E+00   0.000000000000000E+00
   0.000000000000000E+00   0.000000000000000E+00   0.000000000000000E+00
   0.000000000000000E+00   0.000000000000000E+00   0.000000000000000E+00
   0.000000000000000E+00
    </PP_AEWFC.1>
    <PP_AEWFC.2 index="2" label="3S" l="0">
   3.599095626377314E-04   3.644191683666509E-04   3.689852786898948E-04
   3.736086016004387E-04   3.782897951817383E-04   3.830294595575877E-04
   3.878283572617750E-04   3.926872216469740E-04   3.976068015830725E-04
   4.025878552459618E-04   4.076311502260435E-04   4.127374636447389E-04
   4.179075822719927E-04   4.231423026451645E-04   4.284424311893602E-04
   4.338087843392165E-04   4.392421886621541E-04   4.447434809831193E-04
   4.503135085108291E-04   4.559531289655382E-04   4.616632107083445E-04
   4.674446328720526E-04   4.732982854936114E-04   4.792250696481450E-04
   4.852258975845948E-04   4.913016928629919E-04   4.974533904933779E-04
   5.036819370763920E-04   5.099882909455469E-04   5.163734223112087E-04
   5.228383134063026E-04   5.293839586337636E-04   5.360113647157521E-04
   5.427215508446543E-04   5.495155488358872E-04   5.563944032825303E-04
   5.633591717118028E-04   5.704109247434075E-04   5.775507462497640E-04
   5.847797335181503E-04   5.920989974147761E-04   5.995096625508084E-04
   6.070128674503714E-04   6.146097647205436E-04   6.223015212233731E-04
   6.300893182499354E-04   6.379743516964543E-04   6.459578322425104E-04
   6.540409855313607E-04   6.622250523523906E-04   6.705112888257239E-04
   6.789009665890146E-04   6.873953729864422E-04   6.959958112599383E-04
   7.047036007426657E-04   7.135200770547767E-04   7.224465923014752E-04
   7.314845152734066E-04   7.406352316494027E-04   7.499001442016048E-04
   7.592806730029940E-04   7.687782556373510E-04   7.783943474116753E-04
   7.881304215710870E-04   7.979879695162396E-04   8.079685010232722E-04
   8.180735444663240E-04   8.283046470426427E-04   8.386633750003127E-04
   8.491513138686288E-04   8.597700686911485E-04   8.705212642614465E-04
   8.814065453616008E-04   8.924275770034413E-04   9.035860446725884E-04
   9.148836545753085E-04   9.263221338882202E-04   9.379032310108778E-04
   9.496287158212620E-04   9.615003799342086E-04   9.735200369628057E-04
   9.856895227827887E-04   9.980106957999649E-04   1.010485437220697E-03
   1.023115651325478E-03   1.035903265745630E-03   1.048850231743154E-03
   1.061958524493768E-03   1.075230143373157E-03   1.088667112246481E-03
   1.102271479761156E-03   1.116045319642954E-03   1.129990730995450E-03
   1.144109838602845E-03   1.158404793236204E-03   1.172877771963142E-03
   1.187530978460985E-03   1.202366643333446E-03   1.217387024430847E-03
   1.232594407173924E-03   1.247991104881241E-03   1.263579459100258E-03
   1.279361839942082E-03   1.295340646419930E-03   1.311518306791350E-03
   1.327897278904230E-03   1.344480050546622E-03   1.361269139800431E-03
   1.378267095398992E-03   1.395476497088575E-03   1.412899955993855E-03
   1.430540114987377E-03   1.448399649063061E-03   1.466481265713771E-03
   1.484787705312991E-03   1.503321741500648E-03   1.522086181573101E-03
   1.541083866877357E-03   1.560317673209523E-03   1.579790511217557E-03
   1.599505326808327E-03   1.619465101559036E-03   1.639672853133040E-03
   1.660131635700090E-03   1.680844540361048E-03   1.701814695577097E-03
   1.723045267603491E-03   1.744539460927885E-03   1.766300518713262E-03
   1.788331723245516E-03   1.810636396385712E-03   1.833217900027060E-03
   1.856079636556646E-03   1.879225049321946E-03   1.902657623102163E-03
   1.926380884584423E-03   1.950398402844862E-03   1.974713789834640E-03
   1.999330700870914E-03   2.024252835132810E-03   2.049483936162418E-03
   2.075027792370860E-03   2.100888237549439E-03   2.127069151385927E-03
   2.153574459986015E-03   2.180408136399945E-03   2.207574201154386E-03
   2.235076722789545E-03   2.262919818401582E-03   2.291107654190334E-03
   2.319644446012395E-03   2.348534459939559E-03   2.377782012822688E-03
   2.407391472860996E-03   2.437367260176813E-03   2.467713847395820E-03
   2.498435760232817E-03   2.529537578083019E-03   2.561023934618921E-03
   2.592899518392764E-03   2.625169073444598E-03   2.657837399915992E-03
   2.690909354669398E-03   2.724389851913195E-03   2.758283863832430E-03
   2.792596421225274E-03   2.827332614145214E-03   2.862497592548997E-03
   2.898096566950339E-03   2.934134809079410E-03   2.970617652548122E-03
   3.007550493521211E-03   3.044938791393142E-03   3.082788069470836E-03
   3.121103915662224E-03   3.159891983170650E-03   3.199157991195102E-03
   3.238907725636299E-03   3.279147039808618E-03   3.319881855157866E-03
   3.361118161984903E-03   3.402862020175093E-03   3.445119559933596E-03
   3.487896982526477E-03   3.531200561027639E-03   3.575036641071545E-03
   3.619411641611744E-03   3.664332055685146E-03   3.709804451182071E-03
   3.755835471622006E-03   3.802431836935087E-03   3.849600344249239E-03
   3.897347868682985E-03   3.945681364143853E-03   3.994607864132377E-03
   4.044134482551637E-03   4.094268414522293E-03   4.145016937203091E-03
   4.196387410616763E-03   4.248387278481297E-03   4.301024069046505E-03
   4.354305395935830E-03   4.408238958993353E-03   4.462832545135900E-03
   4.518094029210208E-03   4.574031374855061E-03   4.630652635368324E-03
   4.687965954578784E-03   4.745979567722730E-03   4.804701802325160E-03
   4.864141079085530E-03   4.924305912767941E-03   4.985204913095661E-03
   5.046846785649869E-03   5.109240332772497E-03   5.172394454473077E-03
   5.236318149339407E-03   5.301020515451984E-03   5.366510751301985E-03
   5.432798156712707E-03   5.499892133764285E-03   5.567802187721546E-03
   5.636537927964813E-03   5.706109068923521E-03   5.776525431012434E-03
   5.847796941570289E-03   5.919933635800683E-03   5.992945657714986E-03
   6.066843261077087E-03   6.141636810349738E-03   6.217336781642286E-03
   6.293953763659561E-03   6.371498458651649E-03   6.449981683364351E-03
   6.529414369990003E-03   6.609807567118450E-03   6.691172440687838E-03
   6.773520274934982E-03   6.856862473344968E-03   6.941210559599714E-03
   7.026576178525144E-03   7.112971097036644E-03   7.200407205082484E-03
   7.288896516584798E-03   7.378451170377809E-03   7.469083431142883E-03
   7.560805690340029E-03   7.653630467135448E-03   7.747570409324694E-03
   7.842638294251036E-03   7.938847029718546E-03   8.036209654899490E-03
   8.134739341235507E-03   8.234449393332111E-03   8.335353249845997E-03
   8.437464484364634E-03   8.540796806277617E-03   8.645364061639189E-03
   8.751180234021405E-03   8.858259445357316E-03   8.966615956773573E-03
   9.076264169411848E-03   9.187218625238381E-03   9.299494007841030E-03
   9.413105143213137E-03   9.528067000523477E-03   9.644394692871582E-03
   9.762103478027728E-03   9.881208759156747E-03   1.000172608552495E-02
   1.012367115318926E-02   1.024705980566785E-02   1.037190803459130E-02
   1.049823198033342E-02   1.062604793262088E-02   1.075537233112071E-02
   1.088622176600463E-02   1.101861297848929E-02   1.115256286135143E-02
   1.128808845941682E-02   1.142520697002202E-02   1.156393574344781E-02
   1.170429228332310E-02   1.184629424699832E-02   1.198995944588695E-02
   1.213530584577396E-02   1.228235156709011E-02   1.243111488515054E-02
   1.258161423035653E-02   1.273386818835900E-02   1.288789550018235E-02
   1.304371506230724E-02   1.320134592671080E-02   1.336080730086286E-02
   1.352211854767653E-02   1.368529918541164E-02   1.385036888752940E-02
   1.401734748249660E-02   1.418625495353762E-02   1.435711143833263E-02
   1.452993722866001E-02   1.470475276998127E-02   1.488157866096656E-02
   1.506043565295888E-02   1.524134464937490E-02   1.542432670504055E-02
   1.560940302545911E-02   1.579659496600987E-02   1.598592403107500E-02
   1.617741187309258E-02   1.637108029153339E-02   1.656695123179919E-02
   1.676504678404007E-02   1.696538918188847E-02   1.716800080110732E-02
   1.737290415814977E-02   1.758012190862796E-02   1.778967684568800E-02
   1.800159189828851E-02   1.821589012938006E-02   1.843259473398230E-02
   1.865172903715622E-02   1.887331649186841E-02   1.909738067674403E-02
   1.932394529370586E-02   1.955303416549575E-02   1.978467123307543E-02
   2.001888055290347E-02   2.025568629408457E-02   2.049511273538824E-02
   2.073718426213279E-02   2.098192536293142E-02   2.122936062629643E-02
   2.147951473709786E-02   2.173241247287274E-02   2.198807869998094E-02
   2.224653836960356E-02   2.250781651357991E-02   2.277193824007868E-02
   2.303892872909921E-02   2.330881322779836E-02   2.358161704563862E-02
   2.385736554935292E-02   2.413608415772144E-02   2.441779833615581E-02
   2.470253359108581E-02   2.499031546414378E-02   2.528116952614159E-02
   2.557512137083528E-02   2.587219660847205E-02   2.617242085911439E-02
   2.647581974573600E-02   2.678241888708400E-02   2.709224389030186E-02
   2.740532034330748E-02   2.772167380692055E-02   2.804132980673335E-02
   2.836431382471919E-02   2.869065129057218E-02   2.902036757277233E-02
   2.935348796936975E-02   2.969003769848146E-02   3.003004188849445E-02
   3.037352556796831E-02   3.072051365523096E-02   3.107103094766047E-02
   3.142510211064622E-02   3.178275166622249E-02   3.214400398136717E-02
   3.250888325595867E-02   3.287741351038358E-02   3.324961857278771E-02
   3.362552206596311E-02   3.400514739386333E-02   3.438851772773942E-02
   3.477565599188871E-02   3.516658484900857E-02   3.556132668514722E-02
   3.595990359424338E-02   3.636233736224665E-02   3.676864945081049E-02
   3.717886098054921E-02   3.759299271385074E-02   3.801106503723645E-02
   3.843309794325975E-02   3.885911101193427E-02   3.928912339168342E-02
   3.972315377980206E-02   4.016122040242150E-02   4.060334099396900E-02
   4.104953277611242E-02   4.149981243618125E-02   4.195419610505446E-02
   4.241269933450646E-02   4.287533707400131E-02   4.334212364692639E-02
   4.381307272625589E-02   4.428819730963481E-02   4.476750969387404E-02
   4.525102144884727E-02   4.573874339077993E-02   4.623068555492110E-02
   4.672685716758866E-02   4.722726661757849E-02   4.773192142692795E-02
   4.824082822102479E-02   4.875399269805136E-02   4.927141959775568E-02
   4.979311266953931E-02   5.031907463985342E-02   5.084930717889351E-02
   5.138381086658398E-02   5.192258515784352E-02   5.246562834712242E-02
   5.301293753220322E-02   5.356450857725600E-02   5.412033607513988E-02
   5.468041330894254E-02   5.524473221274950E-02   5.581328333163552E-02
   5.638605578087008E-02   5.696303720432976E-02   5.754421373211015E-02
   5.812956993733032E-02   5.871908879212330E-02   5.931275162280591E-02
   5.991053806422221E-02   6.051242601325454E-02   6.111839158149699E-02
   6.172840904708625E-02   6.234245080568521E-02   6.296048732061522E-02
   6.358248707213347E-02   6.420841650585188E-02   6.483823998029528E-02
   6.547191971359657E-02   6.610941572932692E-02   6.675068580146055E-02
   6.739568539847345E-02   6.804436762657619E-02   6.869668317208208E-02
   6.935258024291215E-02   7.001200450923940E-02   7.067489904327572E-02
   7.134120425820530E-02   7.201085784626952E-02   7.268379471600936E-02
   7.335994692867143E-02   7.403924363378631E-02   7.472161100392696E-02
   7.540697216865763E-02   7.609524714768381E-02   7.678635278321562E-02
   7.748020267155749E-02   7.817670709393884E-02   7.887577294660134E-02
   7.957730367016003E-02   8.028119917825660E-02   8.098735578552482E-02
   8.169566613488936E-02   8.240601912422095E-02   8.311829983237262E-02
   8.383238944462264E-02   8.454816517755256E-02   8.526550020338940E-02
   8.598426357384378E-02   8.670432014347704E-02   8.742553049263252E-02
   8.814775084996822E-02   8.887083301463009E-02   8.959462427810716E-02
   9.031896734581200E-02   9.104370025843227E-02   9.176865631310137E-02
   9.249366398443855E-02   9.321854684551112E-02   9.394312348877436E-02
   9.466720744704653E-02   9.539060711457990E-02   9.611312566829049E-02
   9.683456098921273E-02   9.755470558424756E-02   9.827334650827585E-02
   9.899026528671108E-02   9.970523783856976E-02   1.004180344001393E-01
   1.011284194493279E-01   1.018361516307833E-01   1.025409836818699E-01
   1.032426623595998E-01   1.039409283686129E-01   1.046355162903077E-01
   1.053261545132264E-01   1.060125651648033E-01   1.066944640445856E-01
   1.073715605590442E-01   1.080435576580916E-01   1.087101517734309E-01
   1.093710327588616E-01   1.100258838326734E-01   1.106743815222628E-01
   1.113161956111099E-01   1.119509890882603E-01   1.125784181004568E-01
   1.131981319070735E-01   1.138097728380066E-01   1.144129762546821E-01
   1.150073705143440E-01   1.155925769377907E-01   1.161682097807328E-01
   1.167338762089480E-01   1.172891762774154E-01   1.178337029136138E-01
   1.183670419051741E-01   1.188887718920797E-01   1.193984643636142E-01
   1.198956836602578E-01   1.203799869807417E-01   1.208509243944692E-01
   1.213080388595215E-01   1.217508662464669E-01   1.221789353681972E-01
   1.225917680160202E-01   1.229888790022394E-01   1.233697762094576E-01
   1.237339606468437E-01   1.240809265136065E-01   1.244101612699226E-01
   1.247211457155691E-01   1.250133540765148E-01   1.252862540997275E-01
   1.255393071564580E-01   1.257719683542628E-01   1.259836866580329E-01
   1.261739050202961E-01   1.263420605210636E-01   1.264875845174941E-01
   1.266099028036503E-01   1.267084357806217E-01   1.267825986372947E-01
   1.268318015420453E-01   1.268554498456348E-01   1.268529442955880E-01
   1.268236812623326E-01   1.267670529773791E-01   1.266824477838195E-01
   1.265692503994215E-01   1.264268421925934E-01   1.262546014714929E-01
   1.260519037865509E-01   1.258181222466762E-01   1.255526278494076E-01
   1.252547898252692E-01   1.249239759965876E-01   1.245595531510171E-01
   1.241608874300182E-01   1.237273447325249E-01   1.232582911340306E-01
   1.227530933213127E-01   1.222111190430089E-01   1.216317375762463E-01
   1.210143202095170E-01   1.203582407419779E-01   1.196628759993456E-01
   1.189276063665401E-01   1.181518163372180E-01   1.173348950803218E-01
   1.164762370237551E-01   1.155752424552759E-01   1.146313181406834E-01
   1.136438779593534E-01   1.126123435571571E-01   1.115361450167780E-01
   1.104147215454171E-01   1.092475221798540E-01   1.080340065088067E-01
   1.067736454125056E-01   1.054659218193710E-01   1.041103314796547E-01
   1.027063837558740E-01   1.012536024298400E-01   9.975152652604470E-02
   9.819971115114040E-02   9.659772834921021E-02   9.494516797249068E-02
   9.324163856717155E-02   9.148676827385852E-02   8.968020574224510E-02
   8.782162105949919E-02   8.591070669182735E-02   8.394717843863757E-02
   8.193077639867655E-02   7.986126594747335E-02   7.773843872537477E-02
   7.556211363541214E-02   7.333213785019105E-02   7.104838782694893E-02
   6.871077032987609E-02   6.631922345874804E-02   6.387371768286770E-02
   6.137425687926740E-02   5.882087937407162E-02   5.621365898587291E-02
   5.355270606992476E-02   5.083816856190770E-02   4.807023301997751E-02
   4.524912566375777E-02   4.237511340889403E-02   3.944850489574166E-02
   3.646965151071706E-02   3.343894839879927E-02   3.035683546562932E-02
   2.722379836761530E-02   2.404036948841428E-02   2.080712890012642E-02
   1.752470530750328E-02   1.419377697344005E-02   1.081507262399099E-02
   7.389372331119155E-03   3.917508371363951E-03   4.003660585846010E-04
  -3.161115451087024E-03  -6.765942383974118E-03  -1.041306560517581E-02
  -1.410137990841596E-02  -1.782972334137664E-02  -2.159687656849479E-02
  -2.540156227322314E-02  -2.924244460177923E-02  -3.311812865043009E-02
  -3.702715999838504E-02  -4.096802428839488E-02  -4.493914685718307E-02
  -4.893889241786244E-02  -5.296556479652063E-02  -5.701740672518648E-02
  -6.109259969342058E-02  -6.518926386080144E-02  -6.930545803260761E-02
  -7.343917970102175E-02  -7.758836515420516E-02  -8.175088965560880E-02
  -8.592456769589990E-02  -9.010715331988692E-02  -9.429634053082210E-02
  -9.848976377444664E-02  -1.026849985051173E-01  -1.068795618363141E-01
  -1.110709132777763E-01  -1.152564555614432E-01  -1.194335355582935E-01
  -1.235994452880724E-01  -1.277514230237781E-01  -1.318866544926391E-01
  -1.360022741751599E-01  -1.400953667036399E-01  -1.441629683613774E-01
  -1.482020686835669E-01  -1.522096121606725E-01  -1.561825000448257E-01
  -1.601175922595441E-01  -1.640117094128042E-01  -1.678616349132313E-01
  -1.716641171888852E-01  -1.754158720078313E-01  -1.791135848993911E-01
  -1.827539136746683E-01  -1.863334910446402E-01  -1.898489273338048E-01
  -1.932968132870684E-01  -1.966737229672563E-01  -1.999762167403361E-01
  -2.032008443451447E-01  -2.063441480441277E-01  -2.094026658513215E-01
  -2.123729348335367E-01  -2.152514944804454E-01  -2.180348901390267E-01
  -2.207196765075931E-01  -2.233024211843966E-01  -2.257797082656147E-01
  -2.281481419873254E-01  -2.304043504059098E-01  -2.325449891111716E-01
  -2.345667449663273E-01  -2.364663398689110E-01  -2.382405345265441E-01
  -2.398861322414494E-01  -2.413999826975433E-01  -2.427789857439090E-01
  -2.440200951684545E-01  -2.451203224555731E-01  -2.460767405216699E-01
  -2.468864874224782E-01  -2.475467700261774E-01  -2.480548676464335E-01
  -2.484081356296080E-01  -2.486040088905375E-01  -2.486400053914507E-01
  -2.485137295587800E-01  -2.482228756328329E-01  -2.477652309455081E-01
  -2.471386791214813E-01  -2.463412031985359E-01  -2.453708886629767E-01
  -2.442259263963384E-01  -2.429046155298812E-01  -2.414053662036537E-01
  -2.397267022271943E-01  -2.378672636392355E-01  -2.358258091640694E-01
  -2.336012185625231E-01  -2.311924948757769E-01  -2.285987665605412E-01
  -2.258192895143726E-01  -2.228534489901726E-01  -2.197007613991535E-01
  -2.163608760017861E-01  -2.128335764864563E-01  -2.091187824357466E-01
  -2.052165506804296E-01  -2.011270765414080E-01  -1.968506949599558E-01
  -1.923878815167148E-01  -1.877392533399658E-01  -1.829055699037389E-01
  -1.778877337163384E-01  -1.726867908998429E-01  -1.673039316610951E-01
  -1.617404906546237E-01  -1.559979472378388E-01  -1.500779256187090E-01
  -1.439821948959785E-01  -1.377126689917981E-01  -1.312714064764411E-01
  -1.246606102845521E-01  -1.178826273221328E-01  -1.109399479632087E-01
  -1.038352054348527E-01  -9.657117508895668E-02  -8.915077355886099E-02
  -8.157705779866073E-02  -7.385322400272702E-02  -6.598260640270415E-02
  -5.796867593898135E-02  -4.981503880339345E-02  -4.152543484968434E-02
  -3.310373586807548E-02  -2.455394372012676E-02  -1.588018832996202E-02
  -7.086725527865616E-03   1.822065257757010E-03   1.084168346401393E-02
   1.996751001660245E-02   2.919481011598565E-02   3.851873619006498E-02
   4.793433101639549E-02   5.743653101655172E-02   6.702016972471947E-02
   7.667998143195578E-02   8.641060500682454E-02   9.620658789227224E-02
   1.060623902776582E-01   1.159723894436900E-01   1.259308842776256E-01
   1.359320996808460E-01   1.459701903955764E-01   1.560392457699888E-01
   1.661332962770649E-01   1.762463184970032E-01   1.863722405193302E-01
   1.965049474872194E-01   2.066382871981161E-01   2.167660757894210E-01
   2.268821034818330E-01   2.369801403601011E-01   2.470539421685405E-01
   2.570972560971448E-01   2.671038265328177E-01   2.770674007491926E-01
   2.869817345077770E-01   2.968405975428102E-01   3.066377789023339E-01
   3.163670921186137E-01   3.260223801822867E-01   3.355975202965046E-01
   3.450864283899453E-01   3.544830633709207E-01   3.637814311089157E-01
   3.729755881347577E-01   3.820596450561792E-01   3.910277696917202E-01
   3.998741899326071E-01   4.085931963492631E-01   4.171791445662626E-01
   4.256264574365941E-01   4.339296270527685E-01   4.420832166383538E-01
   4.500818623686128E-01   4.579202751728517E-01   4.655932425735994E-01
   4.730956306186834E-01   4.804223859615329E-01   4.875685381426121E-01
   4.945292021208175E-01   5.012995810981090E-01   5.078749696737939E-01
   5.142507573570109E-01   5.204224324573887E-01   5.263855863648844E-01
   5.321359182207924E-01   5.376692399731385E-01   5.429814818014084E-01
   5.480686978880195E-01   5.529270725072970E-01   5.575529263970821E-01
   5.619427233735002E-01   5.660930771458939E-01   5.700007582864121E-01
   5.736627013071990E-01   5.770760117974485E-01   5.802379735726688E-01
   5.831460557892418E-01   5.857979199786509E-01   5.881914269574692E-01
   5.903246435712719E-01   5.921958492329573E-01   5.938035422184621E-01
   5.951464456854709E-01   5.962235133833901E-01   5.970339350255468E-01
   5.975771412972316E-01   5.978528084758271E-01   5.978608626417991E-01
   5.976014834617929E-01   5.970751075274342E-01   5.962824312356862E-01
   5.952244131987635E-01   5.939022761736286E-01   5.923175085030196E-01
   5.904718650617542E-01   5.883673677037471E-01   5.860063052067569E-01
   5.833912327133465E-01   5.805249706679034E-01   5.774106032508313E-01
   5.740514763121848E-01   5.704511948080879E-01   5.666136197442571E-01
   5.625428646318460E-01   5.582432914616430E-01   5.537195062033987E-01
   5.489763538377368E-01   5.440189129287208E-01   5.388524897457128E-01
   5.334826119436840E-01   5.279150218116206E-01   5.221556690991225E-01
   5.162107034317281E-01   5.100864663259269E-01   5.037894828152296E-01
   4.973264526991038E-01   4.907042414270097E-01   4.839298706302324E-01
   4.770105083146913E-01   4.699534587284275E-01   4.627661519180281E-01
   4.554561329888526E-01   4.480310510845836E-01   4.404986481023286E-01
   4.328667471602657E-01   4.251432408287333E-01   4.173360791797882E-01
   4.094532575987251E-01   4.015028044576274E-01   3.934927686312057E-01
   3.854312068862049E-01   3.773261711681659E-01   3.691856958104520E-01
   3.610177846915869E-01   3.528303983680889E-01   3.446314412111104E-01
   3.364287485763004E-01   3.282300740373656E-01   3.200430767148171E-01
   3.118753087323287E-01   3.037342028339841E-01   2.956270601964350E-01
   2.875610384706262E-01   2.795431400882274E-01   2.715802008682592E-01
   2.636788789595642E-01   2.558456441547752E-01   2.480867676112226E-01
   2.404083120138198E-01   2.328161222143433E-01   2.253158163806809E-01
   2.179127776885488E-01   2.106121465868751E-01   2.034188136665150E-01
   1.963374131601922E-01   1.893723170995710E-01   1.825276301531462E-01
   1.758071851662148E-01   1.692145394215633E-01   1.627529716366939E-01
   1.564254797104274E-01   1.502347792285884E-01   1.441833027352088E-01
   1.382731997723158E-01   1.325063376879065E-01   1.268843032081978E-01
   1.214084047666875E-01   1.160796755790084E-01   1.108988774490232E-01
   1.058665052881291E-01   1.009827923263364E-01   9.624771599039010E-02
   9.166100442104104E-02   8.722214359856932E-02   8.293038504284184E-02
   7.878475405157152E-02   7.478405843805823E-02   7.092689772754909E-02
   6.721167276947569E-02   6.363659572122078E-02   6.019970035775039E-02
   5.689885266042441E-02   5.373176163757916E-02   5.069599032905788E-02
   4.778896694675489E-02   4.500799610342328E-02   4.235027008249725E-02
   3.981288010242280E-02   3.739282753007377E-02   3.508703499913528E-02
   3.289235739089191E-02   3.080559263666273E-02   2.882349230313705E-02
   2.694277192406754E-02   2.516012104415460E-02   2.347221294348105E-02
   2.187571401350932E-02   2.036729275840822E-02   1.894362839831033E-02
   1.760141905399046E-02   1.633738949537634E-02   1.514829843923195E-02
   1.403094538426987E-02   1.298217697482964E-02   1.199889288708447E-02
   1.107805123449022E-02   1.021667349184989E-02   9.411848939918591E-03
   8.660738634903719E-03   7.960578909509176E-03   7.308684414321432E-03
   6.702450710328260E-03   6.139356425191637E-03   5.616964987558390E-03
   5.132925955181698E-03   4.684975953941233E-03   4.270939245988770E-03
   3.888727946210078E-03   3.536341906985280E-03   3.211868291851724E-03
   2.913480859130817E-03   2.639438976878617E-03   2.388086390666244E-03
   2.157849765697765E-03   1.947237024638379E-03   1.754835502263368E-03
   1.579309937657574E-03   1.419400324205734E-03   1.273919637025505E-03
   1.141751456819257E-03   1.021847508343936E-03   9.132251310099128E-04
   8.149646977265760E-04   7.262069971545503E-04   6.461506556940052E-04
   5.740488404772519E-04   5.092110044635303E-04   4.509842040354844E-04
   3.987861486873535E-04   3.520806499585948E-04   3.103585948242425E-04
   2.731469555571120E-04   2.400110584438138E-04   2.105521420213384E-04
   1.844050087059309E-04   1.612357715940266E-04   1.407396977483404E-04
   1.226391488098418E-04   1.066816191078065E-04   9.263787110497899E-05
   8.030016752863234E-05   6.948059907213698E-05   6.000950620048287E-05
   5.173399324757840E-05   4.451653267637719E-05   3.823365709554898E-05
   3.277473638405033E-05   2.804083706696673E-05   2.394366091154528E-05
   2.040455957033687E-05   1.735362198752900E-05   1.472883120340028E-05
   1.247528713873152E-05   1.054449191419916E-05   8.893694257380546E-06
   7.485289570063776E-06   6.286272269065983E-06   5.267737072684234E-06
   4.404425980182928E-06   3.674317781328103E-06   3.058257034913347E-06
   2.539619567538871E-06   2.104011664729590E-06   1.739000254019406E-06
   1.433871512193780E-06   1.179415464885352E-06   9.677342846876388E-07
   7.920721325411711E-07   6.466645251322552E-07   5.266053473323190E-07
   4.277297623290131E-07   3.465114022196440E-07   2.799723477376786E-07
   2.256045268685419E-07   1.813012779006440E-07   1.452979325785718E-07
   1.161203792055337E-07   9.254066360242249E-08   7.353877767700668E-08
   5.826987097078183E-08   4.603619998248696E-08   3.626320342471820E-08
   2.847915901233411E-08   2.229793910944898E-08   1.740443881091744E-08
   1.354230106611912E-08   1.050360954880756E-08   8.120261431191697E-09
   6.256769332690317E-09   4.804274792814404E-09   3.675584922444565E-09
   2.801069897229099E-09   2.125280949027919E-09   1.604171983771630E-09
   1.202806398105059E-09   8.935290635387980E-10   6.542711247051457E-10
   4.686792811400989E-10   3.172421073535865E-10   0.000000000000000E+00
   0.000000000000000E+00   0.000000000000000E+00   0.000000000000000E+00
   0.000000000000000E+00   0.000000000000000E+00   0.000000000000000E+00
   0.000000000000000E+00   0.000000000000000E+00   0.000000000000000E+00
   0.000000000000000E+00   0.000000000000000E+00   0.000000000000000E+00
   0.000000000000000E+00   0.000000000000000E+00   0.000000000000000E+00
   0.000000000000000E+00   0.000000000000000E+00   0.000000000000000E+00
   0.000000000000000E+00   0.000000000000000E+00   0.000000000000000E+00
   0.000000000000000E+00   0.000000000000000E+00   0.000000000000000E+00
   0.000000000000000E+00   0.000000000000000E+00   0.000000000000000E+00
   0.000000000000000E+00   0.000000000000000E+00   0.000000000000000E+00
   0.000000000000000E+00   0.000000000000000E+00   0.000000000000000E+00
   0.000000000000000E+00   0.000000000000000E+00   0.000000000000000E+00
   0.000000000000000E+00   0.000000000000000E+00   0.000000000000000E+00
   0.000000000000000E+00   0.000000000000000E+00   0.000000000000000E+00
   0.000000000000000E+00   0.000000000000000E+00   0.000000000000000E+00
   0.000000000000000E+00   0.000000000000000E+00   0.000000000000000E+00
   0.000000000000000E+00   0.000000000000000E+00   0.000000000000000E+00
   0.000000000000000E+00   0.000000000000000E+00   0.000000000000000E+00
   0.000000000000000E+00   0.000000000000000E+00   0.000000000000000E+00
   0.000000000000000E+00   0.000000000000000E+00   0.000000000000000E+00
   0.000000000000000E+00   0.000000000000000E+00   0.000000000000000E+00
   0.000000000000000E+00   0.000000000000000E+00   0.000000000000000E+00
   0.000000000000000E+00   0.000000000000000E+00   0.000000000000000E+00
   0.000000000000000E+00   0.000000000000000E+00   0.000000000000000E+00
   0.000000000000000E+00
    </PP_AEWFC.2>
    <PP_AEWFC.3 index="3" label="2P" l="1">
   5.694463535527680E-07   5.814156603557856E-07   5.936365524125340E-07
   6.061143178437817E-07   6.188670459615516E-07   6.319273960840843E-07
   6.452950664576020E-07   6.589781729004681E-07   6.729836268511974E-07
   6.873185057361232E-07   7.019900576063474E-07   7.170057050742492E-07
   7.323730493105884E-07   7.480998741654264E-07   7.641941503894544E-07
   7.806640399606953E-07   7.975179005189734E-07   8.147642899107762E-07
   8.324119708471920E-07   8.504699156776747E-07   8.689473112824560E-07
   8.878535640865003E-07   9.071983051979690E-07   9.269913956742365E-07
   9.472429319185787E-07   9.679632512107351E-07   9.891629373746214E-07
   1.010852826586563E-06   1.033044013327494E-06   1.055747856482663E-06
   1.078975985592467E-06   1.102740307258145E-06   1.127053011706126E-06
   1.151926579514962E-06   1.177373788508841E-06   1.203407720821791E-06
   1.230041770136800E-06   1.257289649104165E-06   1.285165396943497E-06
   1.313683387233942E-06   1.342858335897246E-06   1.372705309378475E-06
   1.403239733029248E-06   1.434477399698538E-06   1.466434478536156E-06
   1.499127524014215E-06   1.532573485171972E-06   1.566789715089596E-06
   1.601793980596543E-06   1.637604472220377E-06   1.674239814381996E-06
   1.711719075843403E-06   1.750061780414288E-06   1.789287917923872E-06
   1.829417955464598E-06   1.870472848914449E-06   1.912474054744820E-06
   1.955443542121051E-06   1.999403805302919E-06   2.044377876352556E-06
   2.090389338157449E-06   2.137462337776384E-06   2.185621600116368E-06
   2.234892441948796E-06   2.285300786273315E-06   2.336873177038047E-06
   2.389636794225077E-06   2.443619469310298E-06   2.498849701106969E-06
   2.555356672002548E-06   2.613170264598619E-06   2.672321078763971E-06
   2.732840449111143E-06   2.794760462906999E-06   2.858113978428177E-06
   2.922934643772508E-06   2.989256916137797E-06   3.057116081579627E-06
   3.126548275260156E-06   3.197590502200155E-06   3.270280658546876E-06
   3.344657553370588E-06   3.420760931003048E-06   3.498631493931367E-06
   3.578310926261206E-06   3.659841917763480E-06   3.743268188519154E-06
   3.828634514177078E-06   3.915986751840148E-06   4.005371866595521E-06
   4.096837958704910E-06   4.190434291471525E-06   4.286211319800466E-06
   4.384220719469966E-06   4.484515417131171E-06   4.587149621054699E-06
   4.692178852642578E-06   4.799659978724717E-06   4.909651244659462E-06
   5.022212308258330E-06   5.137404274555486E-06   5.255289731443062E-06
   5.375932786193915E-06   5.499399102893984E-06   5.625755940806938E-06
   5.755072193694398E-06   5.887418430115554E-06   6.022866934730627E-06
   6.161491750633231E-06   6.303368722737280E-06   6.448575542244763E-06
   6.597191792221345E-06   6.749298994307408E-06   6.904980656592871E-06
   7.064322322684789E-06   7.227411621997475E-06   7.394338321295630E-06
   7.565194377521695E-06   7.740073991939463E-06   7.919073665626723E-06
   8.102292256350566E-06   8.289831036859814E-06   8.481793754629854E-06
   8.678286693096045E-06   8.879418734412842E-06   9.085301423776518E-06
   9.296049035350518E-06   9.511778639833302E-06   9.732610173709532E-06
   9.958666510226578E-06   1.019007353213918E-05   1.042696020626637E-05
   1.066945865990558E-05   1.091770425915036E-05   1.117183568915884E-05
   1.143199503642150E-05   1.169832787307804E-05   1.197098334333419E-05
   1.225011425203072E-05   1.253587715541800E-05   1.282843245419116E-05
   1.312794448884171E-05   1.343458163738336E-05   1.374851641551096E-05
   1.406992557925285E-05   1.439899023017875E-05   1.473589592322627E-05
   1.508083277721147E-05   1.543399558808958E-05   1.579558394503448E-05
   1.616580234940664E-05   1.654486033668118E-05   1.693297260140947E-05
   1.733035912528941E-05   1.773724530842146E-05   1.815386210382927E-05
   1.858044615532591E-05   1.901723993880838E-05   1.946449190706544E-05
   1.992245663818557E-05   2.039139498765426E-05   2.087157424423193E-05
   2.136326828970584E-05   2.186675776261199E-05   2.238233022602500E-05
   2.291028033951665E-05   2.345091003538599E-05   2.400452869926661E-05
   2.457145335521921E-05   2.515200885542010E-05   2.574652807455924E-05
   2.635535210906403E-05   2.697883048126770E-05   2.761732134864463E-05
   2.827119171823725E-05   2.894081766640267E-05   2.962658456401001E-05
   3.032888730722296E-05   3.104813055400487E-05   3.178472896648745E-05
   3.253910745934746E-05   3.331170145433909E-05   3.410295714113358E-05
   3.491333174462116E-05   3.574329379883429E-05   3.659332342765480E-05
   3.746391263247170E-05   3.835556558696030E-05   3.926879893915773E-05
   4.020414212101361E-05   4.116213766559961E-05   4.214334153216550E-05
   4.314832343923431E-05   4.417766720593350E-05   4.523197110176401E-05
   4.631184820501377E-05   4.741792677002753E-05   4.855085060354942E-05
   4.971127945036061E-05   5.089988938843904E-05   5.211737323387418E-05
   5.336444095577509E-05   5.464182010141609E-05   5.595025623186963E-05
   5.729051336838261E-05   5.866337444975814E-05   6.006964180101104E-05
   6.151013761357189E-05   6.298570443732116E-05   6.449720568474102E-05
   6.604552614748038E-05   6.763157252563484E-05   6.925627397005045E-05
   7.092058263796867E-05   7.262547426233564E-05   7.437194873510828E-05
   7.616103070489658E-05   7.799377018929001E-05   7.987124320222371E-05
   8.179455239674949E-05   8.376482772358406E-05   8.578322710581693E-05
   8.785093713016863E-05   8.996917375519942E-05   9.213918303687830E-05
   9.436224187193135E-05   9.663965875939868E-05   9.897277458083932E-05
   1.013629633996333E-04   1.038116332798416E-04   1.063202271250942E-04
   1.088902235379888E-04   1.115231377004931E-04   1.142205222758556E-04
   1.169839683325417E-04   1.198151062907227E-04   1.227156068918602E-04
   1.256871821919387E-04   1.287315865789120E-04   1.318506178149447E-04
   1.350461181040403E-04   1.383199751856638E-04   1.416741234549788E-04
   1.451105451103344E-04   1.486312713286529E-04   1.522383834693806E-04
   1.559340143076849E-04   1.597203492975912E-04   1.635996278657723E-04
   1.675741447367180E-04   1.716462512900302E-04   1.758183569506046E-04
   1.800929306124790E-04   1.844725020971440E-04   1.889596636471324E-04
   1.935570714557202E-04   1.982674472335921E-04   2.030935798133430E-04
   2.080383267927072E-04   2.131046162174280E-04   2.182954483046981E-04
   2.236138972081258E-04   2.290631128252011E-04   2.346463226482578E-04
   2.403668336599523E-04   2.462280342742975E-04   2.522333963243209E-04
   2.583864770974320E-04   2.646909214196141E-04   2.711504637895767E-04
   2.777689305640325E-04   2.845502421952867E-04   2.914984155223528E-04
   2.986175661168375E-04   3.059119106848633E-04   3.133857695263236E-04
   3.210435690527969E-04   3.288898443654741E-04   3.369292418944795E-04
   3.451665221010028E-04   3.536065622436817E-04   3.622543592107141E-04
   3.711150324192033E-04   3.801938267832788E-04   3.894961157525622E-04
   3.990274044225863E-04   4.087933327188068E-04   4.187996786558810E-04
   4.290523616739263E-04   4.395574460535037E-04   4.503211444111103E-04
   4.613498212770032E-04   4.726499967572138E-04   4.842283502816500E-04
   4.960917244402268E-04   5.082471289090010E-04   5.207017444683309E-04
   5.334629271151219E-04   5.465382122712612E-04   5.599353190903881E-04
   5.736621548651916E-04   5.877268195374672E-04   6.021376103132186E-04
   6.169030263851250E-04   6.320317737647532E-04   6.475327702269289E-04
   6.634151503687442E-04   6.796882707857129E-04   6.963617153676466E-04
   7.134453007168682E-04   7.309490816914355E-04   7.488833570760937E-04
   7.672586753837386E-04   7.860858407902132E-04   8.053759192053277E-04
   8.251402444830378E-04   8.453904247737791E-04   8.661383490220096E-04
   8.873961936120697E-04   9.091764291655285E-04   9.314918274932433E-04
   9.543554687054213E-04   9.777807484830287E-04   1.001781385513961E-03
   1.026371429097440E-03   1.051565266920183E-03   1.077377633007925E-03
   1.103823615855977E-03   1.130918666742532E-03   1.158678608228516E-03
   1.187119642847853E-03   1.216258361992054E-03   1.246111754993140E-03
   1.276697218408947E-03   1.308032565514961E-03   1.340136036006868E-03
   1.373026305918097E-03   1.406722497756701E-03   1.441244190865975E-03
   1.476611432013313E-03   1.512844746211839E-03   1.549965147779461E-03
   1.587994151640027E-03   1.626953784871369E-03   1.666866598505085E-03
   1.707755679582959E-03   1.749644663475036E-03   1.792557746464407E-03
   1.836519698603834E-03   1.881555876849458E-03   1.927692238476848E-03
   1.974955354784774E-03   2.023372425092129E-03   2.072971291033512E-03
   2.123780451159051E-03   2.175829075844132E-03   2.229147022514741E-03
   2.283764851194234E-03   2.339713840377398E-03   2.397026003237740E-03
   2.455734104174024E-03   2.515871675702115E-03   2.577473035698294E-03
   2.640573305000246E-03   2.705208425372003E-03   2.771415177839169E-03
   2.839231201400854E-03   2.908695012124760E-03   2.979846022631949E-03
   3.052724561977879E-03   3.127371895936328E-03   3.203830247692908E-03
   3.282142818954903E-03   3.362353811484211E-03   3.444508449060226E-03
   3.528652999879537E-03   3.614834799399344E-03   3.703102273631559E-03
   3.793504962894554E-03   3.886093546029569E-03   3.980919865088834E-03
   4.078036950502425E-03   4.177499046730963E-03   4.279361638411202E-03
   4.383681477001631E-03   4.490516607935152E-03   4.599926398285934E-03
   4.711971564957528E-03   4.826714203399277E-03   4.944217816858098E-03
   5.064547346172613E-03   5.187769200116630E-03   5.313951286298878E-03
   5.443163042625910E-03   5.575475469334970E-03   5.710961161603587E-03
   5.849694342742588E-03   5.991750897979094E-03   6.137208408836035E-03
   6.286146188114548E-03   6.438645315485549E-03   6.594788673696637E-03
   6.754660985400325E-03   6.918348850609487E-03   7.085940784785701E-03
   7.257527257566032E-03   7.433200732133586E-03   7.613055705236961E-03
   7.797188747863550E-03   7.985698546571324E-03   8.178685945483597E-03
   8.376253988950907E-03   8.578507964883903E-03   8.785555448760885E-03
   8.997506348313190E-03   9.214472948891444E-03   9.436569959515223E-03
   9.663914559608347E-03   9.896626446421600E-03   1.013482788314431E-02
   1.037864374770570E-02   1.062820158226653E-02   1.088363164340098E-02
   1.114506695296835E-02   1.141264334967340E-02   1.168649954131384E-02
   1.196677715771262E-02   1.225362080433232E-02   1.254717811656802E-02
   1.284759981471462E-02   1.315503975960357E-02   1.346965500890352E-02
   1.379160587407840E-02   1.412105597799577E-02   1.445817231317727E-02
   1.480312530068238E-02   1.515608884961550E-02   1.551724041724551E-02
   1.588676106972611E-02   1.626483554340390E-02   1.665165230670048E-02
   1.704740362255316E-02   1.745228561139849E-02   1.786649831468073E-02
   1.829024575886694E-02   1.872373601994829E-02   1.916718128840662E-02
   1.962079793462325E-02   2.008480657470581E-02   2.055943213670760E-02
   2.104490392721190E-02   2.154145569825258E-02   2.204932571454033E-02
   2.256875682096236E-02   2.309999651032128E-02   2.364329699127750E-02
   2.419891525645726E-02   2.476711315068650E-02   2.534815743930883E-02
   2.594231987654364E-02   2.654987727383854E-02   2.717111156816762E-02
   2.780630989022517E-02   2.845576463246201E-02   2.911977351690899E-02
   2.979863966272994E-02   3.049267165344386E-02   3.120218360375309E-02
   3.192749522591200E-02   3.266893189556763E-02   3.342682471700099E-02
   3.420151058769479E-02   3.499333226215022E-02   3.580263841487266E-02
   3.662978370244263E-02   3.747512882458540E-02   3.833904058414908E-02
   3.922189194589797E-02   4.012406209402399E-02   4.104593648827608E-02
   4.198790691860321E-02   4.295037155820344E-02   4.393373501486737E-02
   4.493840838050064E-02   4.596480927870611E-02   4.701336191030237E-02
   4.808449709665119E-02   4.917865232066226E-02   5.029627176533939E-02
   5.143780634972806E-02   5.260371376211980E-02   5.379445849036446E-02
   5.501051184913670E-02   5.625235200399903E-02   5.752046399209815E-02
   5.881533973932779E-02   6.013747807378524E-02   6.148738473534507E-02
   6.286557238116798E-02   6.427256058695789E-02   6.570887584377569E-02
   6.717505155021275E-02   6.867162799972262E-02   7.019915236290365E-02
   7.175817866452100E-02   7.334926775505060E-02   7.497298727652314E-02
   7.662991162244043E-02   7.832062189153187E-02   8.004570583511328E-02
   8.180575779780520E-02   8.360137865136318E-02   8.543317572136648E-02
   8.730176270650800E-02   8.920775959022158E-02   9.115179254437959E-02
   9.313449382478753E-02   9.515650165819813E-02   9.721846012056309E-02
   9.932101900623530E-02   1.014648336878301E-01   1.036505649664506E-01
   1.058788789119766E-01   1.081504466931136E-01   1.104659443968943E-01
   1.128260528373204E-01   1.152314573528317E-01   1.176828475922821E-01
   1.201809172891037E-01   1.227263640233338E-01   1.253198889711792E-01
   1.279621966417898E-01   1.306539946009112E-01   1.333959931810847E-01
   1.361889051780622E-01   1.390334455331040E-01   1.419303310008244E-01
   1.448802798022527E-01   1.478840112627785E-01   1.509422454346479E-01
   1.540557027036828E-01   1.572251033798965E-01   1.604511672716804E-01
   1.637346132432421E-01   1.670761587549790E-01   1.704765193864761E-01
   1.739364083418216E-01   1.774565359369430E-01   1.810376090686706E-01
   1.846803306652457E-01   1.883853991179988E-01   1.921535076939333E-01
   1.959853439289607E-01   1.998815890015465E-01   2.038429170865371E-01
   2.078699946889540E-01   2.119634799575547E-01   2.161240219779781E-01
   2.203522600453083E-01   2.246488229159097E-01   2.290143280384066E-01
   2.334493807637021E-01   2.379545735339528E-01   2.425304850504412E-01
   2.471776794203114E-01   2.518967052821627E-01   2.566880949105224E-01
   2.615523632992494E-01   2.664900072239525E-01   2.715015042835394E-01
   2.765873119210455E-01   2.817478664239316E-01   2.869835819040726E-01
   2.922948492577015E-01   2.976820351056131E-01   3.031454807139733E-01
   3.086855008961243E-01   3.143023828958219E-01   3.199963852523866E-01
   3.257677366483005E-01   3.316166347398284E-01   3.375432449712970E-01
   3.435476993737137E-01   3.496300953484640E-01   3.557904944368782E-01
   3.620289210765149E-01   3.683453613450656E-01   3.747397616928417E-01
   3.812120276648622E-01   3.877620226136195E-01   3.943895664036612E-01
   4.010944341091811E-01   4.078763547058746E-01   4.147350097583716E-01
   4.216700321046180E-01   4.286810045386347E-01   4.357674584931426E-01
   4.429288727235933E-01   4.501646719952051E-01   4.574742257746568E-01
   4.648568469281393E-01   4.723117904275226E-01   4.798382520664385E-01
   4.874353671881281E-01   4.951022094269484E-01   5.028377894654719E-01
   5.106410538091540E-01   5.185108835805827E-01   5.264460933353539E-01
   5.344454299016580E-01   5.425075712456835E-01   5.506311253649824E-01
   5.588146292119630E-01   5.670565476497056E-01   5.753552724423207E-01
   5.837091212820988E-01   5.921163368557204E-01   6.005750859518312E-01
   6.090834586123102E-01   6.176394673295952E-01   6.262410462924662E-01
   6.348860506827279E-01   6.435722560252792E-01   6.522973575941146E-01
   6.610589698768600E-01   6.698546261005178E-01   6.786817778211730E-01
   6.875377945805006E-01   6.964199636320119E-01   7.053254897400834E-01
   7.142514950549261E-01   7.231950190667795E-01   7.321530186427405E-01
   7.411223681497743E-01   7.500998596675920E-01   7.590822032952175E-01
   7.680660275551986E-01   7.770478798995470E-01   7.860242273216121E-01
   7.949914570781914E-01   8.039458775262683E-01   8.128837190788307E-01
   8.218011352842540E-01   8.306942040337360E-01   8.395589289012410E-01
   8.483912406203330E-01   8.571869987021702E-01   8.659419931987682E-01
   8.746519466154461E-01   8.833125159761109E-01   8.919192950447459E-01
   9.004678167061280E-01   9.089535555084119E-01   9.173719303697978E-01
   9.257183074510285E-01   9.339880031949713E-01   9.421762875340030E-01
   9.502783872653596E-01   9.582894895940369E-01   9.662047458422235E-01
   9.740192753236399E-01   9.817281693805362E-01   9.893264955804706E-01
   9.968093020693667E-01   1.004171622076723E+00   1.011408478568227E+00
   1.018514889040416E+00   1.025485870451446E+00   1.032316444281411E+00
   1.039001641715144E+00   1.045536508939840E+00   1.051916112549358E+00
   1.058135545046525E+00   1.064189930434329E+00   1.070074429886427E+00
   1.075784247486981E+00   1.081314636029442E+00   1.086660902863589E+00
   1.091818415779751E+00   1.096782608918924E+00   1.101548988697181E+00
   1.106113139732633E+00   1.110470730762955E+00   1.114617520541429E+00
   1.118549363699301E+00   1.122262216562248E+00   1.125752142908708E+00
   1.129015319657872E+00   1.132048042475215E+00   1.134846731283552E+00
   1.137407935667765E+00   1.139728340161563E+00   1.141804769404858E+00
   1.143634193160655E+00   1.145213731180648E+00   1.146540657909109E+00
   1.147612407015037E+00   1.148426575742997E+00   1.148980929073528E+00
   1.149273403684532E+00   1.149302111705573E+00   1.149065344257599E+00
   1.148561574771174E+00   1.147789462076942E+00   1.146747853262648E+00
   1.145435786291727E+00   1.143852492379106E+00   1.141997398120542E+00
   1.139870127372514E+00   1.137470502880332E+00   1.134798547652852E+00
   1.131854486082805E+00   1.128638744812448E+00   1.125151953344898E+00
   1.121394944402114E+00   1.117368754031129E+00   1.113074621460728E+00
   1.108513988711317E+00   1.103688499961259E+00   1.098600000673480E+00
   1.093250536486569E+00   1.087642351875069E+00   1.081777888583987E+00
   1.075659783842950E+00   1.069290868365680E+00   1.062674164140727E+00
   1.055812882019633E+00   1.048710419108787E+00   1.041370355971418E+00
   1.033796453646154E+00   1.025992650488642E+00   1.017963058842659E+00
   1.009711961547068E+00   1.001243808284837E+00   9.925632117801874E-01
   9.836749438497073E-01   9.745839313130326E-01   9.652952517684075E-01
   9.558141292381326E-01   9.461459296885572E-01   9.362961564289226E-01
   9.262704453929718E-01   9.160745603068501E-01   9.057143877464147E-01
   8.951959320866634E-01   8.845253103455809E-01   8.737087469243032E-01
   8.627525682451060E-01   8.516631972843995E-01   8.404471480212763E-01
   8.291110197625122E-01   8.176614913838014E-01   8.061053154672982E-01
   7.944493123391562E-01   7.827003640066162E-01   7.708654079940940E-01
   7.589514310776657E-01   7.469654629173781E-01   7.349145695868740E-01
   7.228058470000507E-01   7.106464142344158E-01   6.984434067355212E-01
   6.862039696110445E-01   6.739352495003215E-01   6.616443910256246E-01
   6.493385233667227E-01   6.370247499866186E-01   6.247101453893189E-01
   6.124017502319824E-01   6.001065641997917E-01   5.878315384465906E-01
   5.755835679690414E-01   5.633694839230442E-01   5.511960458927857E-01
   5.390699341241342E-01   5.269977417356035E-01   5.149859669216809E-01
   5.030410051649462E-01   4.911691414751090E-01   4.793765426748025E-01
   4.676692497537345E-01   4.560531703145286E-01   4.445340711353070E-01
   4.331175708757202E-01   4.218091329546715E-01   4.106140586293883E-01
   3.995374803066905E-01   3.885843551182487E-01   3.777594587922462E-01
   3.670673798540933E-01   3.565125141886311E-01   3.460990599955315E-01
   3.358310131683094E-01   3.257121631254604E-01   3.157460891197026E-01
   3.059361570481323E-01   2.962855167823218E-01   2.867971000330538E-01
   2.774736187595723E-01   2.683175641280759E-01   2.593312060187901E-01
   2.505165930755321E-01   2.418755532863729E-01   2.334096950789900E-01
   2.251204089097663E-01   2.170088693217587E-01   2.090760374434674E-01
   2.013226638979508E-01   1.937492920903010E-01   1.863562618408145E-01
   1.791437133313179E-01   1.721115913329645E-01   1.652596496852974E-01
   1.585874559983486E-01   1.520943965518877E-01   1.457796813685062E-01
   1.396423494398939E-01   1.336812740883161E-01   1.278951684478424E-01
   1.222825910522179E-01   1.168419515183513E-01   1.115715163161886E-01
   1.064694146172075E-01   1.015336442149150E-01   9.676207751156393E-02
   9.215246756582882E-02   8.770245419644232E-02   8.340957013680778E-02
   7.927124723540753E-02   7.528482269646322E-02   7.144754535479914E-02
   6.775658197825486E-02   6.420902359031679E-02   6.080189180492174E-02
   5.753214516465513E-02   5.439668547284637E-02   5.139236410937485E-02
   4.851598831935978E-02   4.576432746333015E-02   4.313411921697111E-02
   4.062207570812712E-02   3.822488957842061E-02   3.593923995662063E-02
   3.376179833077350E-02   3.168923430608808E-02   2.971822123565256E-02
   2.784544171124552E-02   2.606759290178988E-02   2.438139172738021E-02
   2.278357985728788E-02   2.127092852090843E-02   1.984024312125678E-02
   1.848836764133133E-02   1.721218883445003E-02   1.600864019050462E-02
   1.487470567097380E-02   1.380742320647545E-02   1.280388795161445E-02
   1.186125529288638E-02   1.097674360642306E-02   1.014763676340276E-02
   9.371286381990170E-03   8.645113825710203E-03   7.966611949188199E-03
   7.333346593200178E-03   6.742957831963233E-03   6.193160976552023E-03
   5.681747339246227E-03   5.206584764490318E-03   4.765617932976095E-03
   4.356868446135278E-03   3.978434699050268E-03   3.628491550452077E-03
   3.305289799072662E-03   3.007155476152008E-03   2.732488964366076E-03
   2.479763953839155E-03   2.247526246232246E-03   2.034392418157607E-03
   1.839048355358764E-03   1.660247669215909E-03   1.496810007189814E-03
   1.347619268805027E-03   1.211621738697220E-03   1.087824148112659E-03
   9.752916760529178E-04   8.731459010082437E-04   7.805627139221455E-04
   6.967702026815307E-04   6.210465180352173E-04   5.527177304131359E-04
   4.911556866534239E-04   4.357758751494355E-04   3.860353074080725E-04
   3.414304234693577E-04   3.014950280795000E-04   2.657982639403726E-04
   2.339426277818260E-04   2.055620344239597E-04   1.803199334185536E-04
   1.579074822863365E-04   1.380417798034157E-04   1.204641622395569E-04
   1.049385649163349E-04   9.124995093746261E-05   7.920280844948351E-05
   6.861971732083340E-05   5.933998568301279E-05   5.121835636091969E-05
   4.412378283155384E-05   3.793827399225053E-05   3.255580669190681E-05
   2.788130468153044E-05   2.382968237372050E-05   2.032495156386065E-05
   1.729938905798379E-05   1.469276297219160E-05   1.245161531452740E-05
   1.052859833023752E-05   8.881861982886983E-06   7.474489853777743E-06
   6.273980666899904E-06   5.251772581919701E-06   4.382807337625249E-06
   3.645131271719054E-06   3.019530137472070E-06   2.489194865955870E-06
   2.039412626601041E-06   1.657297389319062E-06   1.331460463698108E-06
   1.053165138454318E-06   8.072215523699834E-07   0.000000000000000E+00
   0.000000000000000E+00   0.000000000000000E+00   0.000000000000000E+00
   0.000000000000000E+00   0.000000000000000E+00   0.000000000000000E+00
   0.000000000000000E+00   0.000000000000000E+00   0.000000000000000E+00
   0.000000000000000E+00   0.000000000000000E+00   0.000000000000000E+00
   0.000000000000000E+00   0.000000000000000E+00   0.000000000000000E+00
   0.000000000000000E+00   0.000000000000000E+00   0.000000000000000E+00
   0.000000000000000E+00   0.000000000000000E+00   0.000000000000000E+00
   0.000000000000000E+00   0.000000000000000E+00   0.000000000000000E+00
   0.000000000000000E+00   0.000000000000000E+00   0.000000000000000E+00
   0.000000000000000E+00   0.000000000000000E+00   0.000000000000000E+00
   0.000000000000000E+00   0.000000000000000E+00   0.000000000000000E+00
   0.000000000000000E+00   0.000000000000000E+00   0.000000000000000E+00
   0.000000000000000E+00   0.000000000000000E+00   0.000000000000000E+00
   0.000000000000000E+00   0.000000000000000E+00   0.000000000000000E+00
   0.000000000000000E+00   0.000000000000000E+00   0.000000000000000E+00
   0.000000000000000E+00   0.000000000000000E+00   0.000000000000000E+00
   0.000000000000000E+00   0.000000000000000E+00   0.000000000000000E+00
   0.000000000000000E+00   0.000000000000000E+00   0.000000000000000E+00
   0.000000000000000E+00   0.000000000000000E+00   0.000000000000000E+00
   0.000000000000000E+00   0.000000000000000E+00   0.000000000000000E+00
   0.000000000000000E+00   0.000000000000000E+00   0.000000000000000E+00
   0.000000000000000E+00   0.000000000000000E+00   0.000000000000000E+00
   0.000000000000000E+00   0.000000000000000E+00   0.000000000000000E+00
   0.000000000000000E+00   0.000000000000000E+00   0.000000000000000E+00
   0.000000000000000E+00   0.000000000000000E+00   0.000000000000000E+00
   0.000000000000000E+00   0.000000000000000E+00   0.000000000000000E+00
   0.000000000000000E+00   0.000000000000000E+00   0.000000000000000E+00
   0.000000000000000E+00   0.000000000000000E+00   0.000000000000000E+00
   0.000000000000000E+00   0.000000000000000E+00   0.000000000000000E+00
   0.000000000000000E+00   0.000000000000000E+00   0.000000000000000E+00
   0.000000000000000E+00   0.000000000000000E+00   0.000000000000000E+00
   0.000000000000000E+00   0.000000000000000E+00   0.000000000000000E+00
   0.000000000000000E+00   0.000000000000000E+00   0.000000000000000E+00
   0.000000000000000E+00   0.000000000000000E+00   0.000000000000000E+00
   0.000000000000000E+00   0.000000000000000E+00   0.000000000000000E+00
   0.000000000000000E+00   0.000000000000000E+00   0.000000000000000E+00
   0.000000000000000E+00   0.000000000000000E+00   0.000000000000000E+00
   0.000000000000000E+00   0.000000000000000E+00   0.000000000000000E+00
   0.000000000000000E+00   0.000000000000000E+00   0.000000000000000E+00
   0.000000000000000E+00   0.000000000000000E+00   0.000000000000000E+00
   0.000000000000000E+00   0.000000000000000E+00   0.000000000000000E+00
   0.000000000000000E+00   0.000000000000000E+00   0.000000000000000E+00
   0.000000000000000E+00   0.000000000000000E+00   0.000000000000000E+00
   0.000000000000000E+00   0.000000000000000E+00   0.000000000000000E+00
   0.000000000000000E+00   0.000000000000000E+00   0.000000000000000E+00
   0.000000000000000E+00   0.000000000000000E+00   0.000000000000000E+00
   0.000000000000000E+00   0.000000000000000E+00   0.000000000000000E+00
   0.000000000000000E+00   0.000000000000000E+00   0.000000000000000E+00
   0.000000000000000E+00   0.000000000000000E+00   0.000000000000000E+00
   0.000000000000000E+00   0.000000000000000E+00   0.000000000000000E+00
   0.000000000000000E+00   0.000000000000000E+00   0.000000000000000E+00
   0.000000000000000E+00   0.000000000000000E+00   0.000000000000000E+00
   0.000000000000000E+00   0.000000000000000E+00   0.000000000000000E+00
   0.000000000000000E+00   0.000000000000000E+00   0.000000000000000E+00
   0.000000000000000E+00   0.000000000000000E+00   0.000000000000000E+00
   0.000000000000000E+00   0.000000000000000E+00   0.000000000000000E+00
   0.000000000000000E+00   0.000000000000000E+00   0.000000000000000E+00
   0.000000000000000E+00   0.000000000000000E+00   0.000000000000000E+00
   0.000000000000000E+00   0.000000000000000E+00   0.000000000000000E+00
   0.000000000000000E+00   0.000000000000000E+00   0.000000000000000E+00
   0.000000000000000E+00   0.000000000000000E+00   0.000000000000000E+00
   0.000000000000000E+00   0.000000000000000E+00   0.000000000000000E+00
   0.000000000000000E+00   0.000000000000000E+00   0.000000000000000E+00
   0.000000000000000E+00   0.000000000000000E+00   0.000000000000000E+00
   0.000000000000000E+00   0.000000000000000E+00   0.000000000000000E+00
   0.000000000000000E+00
    </PP_AEWFC.3>
    <PP_AEWFC.4 index="4" label="2P" l="1">
   3.136952337794040E-07   3.202888566418991E-07   3.270210721821630E-07
   3.338947935074100E-07   3.409199856245092E-07   3.481146398420589E-07
   3.554785899262196E-07   3.630163067016392E-07   3.707315975260623E-07
   3.786283611962451E-07   3.867105905023530E-07   3.949823743964961E-07
   4.034479001946453E-07   4.121114558467575E-07   4.209774322622115E-07
   4.300503256932935E-07   4.393347401780488E-07   4.488353900439456E-07
   4.585571024738309E-07   4.685048201356922E-07   4.786836038777799E-07
   4.890986354906843E-07   4.997552205380032E-07   5.106587912572737E-07
   5.218149095328896E-07   5.332292699427661E-07   5.449077028805585E-07
   5.568561777552893E-07   5.690808062702853E-07   5.815878457833692E-07
   5.943837027503101E-07   6.074749362535747E-07   6.208682616184869E-07
   6.345705541189440E-07   6.485888527749020E-07   6.629303642438925E-07
   6.776024668088928E-07   6.926127144649311E-07   7.079688411068671E-07
   7.236787648208481E-07   7.397505922820105E-07   7.561926232610531E-07
   7.730133552423809E-07   7.902214881565843E-07   8.078259292300884E-07
   8.258357979548779E-07   8.442604311812768E-07   8.631093883368410E-07
   8.823924567744882E-07   9.021196572530846E-07   9.223012495537714E-07
   9.429477382354116E-07   9.640698785326124E-07   9.856786823998717E-07
   1.007785424705483E-06   1.030401649578924E-06   1.053539176915558E-06
   1.077210109042549E-06   1.101426837550021E-06   1.126202050291573E-06
   1.151548738558362E-06   1.177480204431090E-06   1.204010068314325E-06
   1.231152276657693E-06   1.258921109868619E-06   1.287331190421377E-06
   1.316397491167350E-06   1.346135343851523E-06   1.376560447840347E-06
   1.407688879066261E-06   1.439537099194254E-06   1.472121965016040E-06
   1.505460738077500E-06   1.539571094545222E-06   1.574471135318121E-06
   1.610179396390231E-06   1.646714859470968E-06   1.684096962869266E-06
   1.722345612648197E-06   1.761481194056818E-06   1.801524583246160E-06
   1.842497159276480E-06   1.884420816423016E-06   1.927317976787729E-06
   1.971211603224656E-06   2.016125212586712E-06   2.062082889301973E-06
   2.109109299287656E-06   2.157229704210241E-06   2.206469976100380E-06
   2.256856612331445E-06   2.308416750970799E-06   2.361178186513101E-06
   2.415169386005187E-06   2.470419505572291E-06   2.526958407355649E-06
   2.584816676871736E-06   2.644025640803681E-06   2.704617385235638E-06
   2.766624774341176E-06   2.830081469537020E-06   2.895021949113771E-06
   2.961481528355486E-06   3.029496380160342E-06   3.099103556174881E-06
   3.170341008454656E-06   3.243247611664402E-06   3.317863185831212E-06
   3.394228519664501E-06   3.472385394456900E-06   3.552376608580580E-06
   3.634246002593843E-06   3.718038484973216E-06   3.803800058486633E-06
   3.891577847223697E-06   3.981420124299404E-06   4.073376340248118E-06
   4.167497152125005E-06   4.263834453332550E-06   4.362441404190239E-06
   4.463372463265917E-06   4.566683419487799E-06   4.672431425056586E-06
   4.780675029177612E-06   4.891474212633450E-06   5.004890423217895E-06
   5.120986612052790E-06   5.239827270809652E-06   5.361478469858650E-06
   5.486007897367972E-06   5.613484899377283E-06   5.743980520869462E-06
   5.877567547865499E-06   6.014320550567949E-06   6.154315927579080E-06
   6.297631951220388E-06   6.444348813980887E-06   6.594548676122233E-06
   6.748315714469417E-06   6.905736172416514E-06   7.066898411177652E-06
   7.231892962314144E-06   7.400812581569489E-06   7.573752304044697E-06
   7.750809500747239E-06   7.932083936547699E-06   8.117677829579092E-06
   8.307695912114608E-06   8.502245492960507E-06   8.701436521401703E-06
   8.905381652738586E-06   9.114196315454493E-06   9.327998780054289E-06
   9.546910229615449E-06   9.771054832094104E-06   1.000055981442949E-05
   1.023555553849137E-05   1.047617557891611E-05   1.072255680287802E-05
   1.097483945184409E-05   1.123316722536099E-05   1.149768736692473E-05
   1.176855075198449E-05   1.204591197813337E-05   1.232992945754008E-05
   1.262076551167714E-05   1.291858646840205E-05   1.322356276144995E-05
   1.353586903239685E-05   1.385568423515495E-05   1.418319174306210E-05
   1.451857945862979E-05   1.486203992601498E-05   1.521377044628315E-05
   1.557397319553136E-05   1.594285534594167E-05   1.632062918983747E-05
   1.670751226681629E-05   1.710372749403530E-05   1.750950329972678E-05
   1.792507376002323E-05   1.835067873917365E-05   1.878656403323422E-05
   1.923298151731897E-05   1.969018929649797E-05   2.015845186043256E-05
   2.063804024183964E-05   2.112923217887888E-05   2.163231228155932E-05
   2.214757220226391E-05   2.267531081049309E-05   2.321583437193096E-05
   2.376945673193977E-05   2.433649950359173E-05   2.491729226034878E-05
   2.551217273350464E-05   2.612148701450533E-05   2.674558976226795E-05
   2.738484441561964E-05   2.803962341098220E-05   2.871030840543048E-05
   2.939729050525584E-05   3.010097050016924E-05   3.082175910328152E-05
   3.156007719700203E-05   3.231635608499982E-05   3.309103775037530E-05
   3.388457512019379E-05   3.469743233653580E-05   3.553008503422290E-05
   3.638302062538157E-05   3.725673859101140E-05   3.815175077972793E-05
   3.906858171385464E-05   4.000776890304246E-05   4.096986316559971E-05
   4.195542895771958E-05   4.296504471079649E-05   4.399930317702795E-05
   4.505881178350212E-05   4.614419299497692E-05   4.725608468556104E-05
   4.839514051951204E-05   4.956203034137226E-05   5.075744057566786E-05
   5.198207463640223E-05   5.323665334658004E-05   5.452191536800388E-05
   5.583861764159125E-05   5.718753583846527E-05   5.856946482207865E-05
   5.998521912163618E-05   6.143563341708788E-05   6.292156303597029E-05
   6.444388446238120E-05   6.600349585837824E-05   6.760131759810002E-05
   6.923829281491423E-05   7.091538796190516E-05   7.263359338601950E-05
   7.439392391619751E-05   7.619741946582343E-05   7.804514564983752E-05
   7.993819441685916E-05   8.187768469667959E-05   8.386476306348972E-05
   8.590060441521869E-05   8.798641266936535E-05   9.012342147571566E-05
   9.231289494634662E-05   9.455612840332705E-05   9.685444914453492E-05
   9.920921722802049E-05   1.016218262753541E-04   1.040937042944081E-04
   1.066263145220312E-04   1.092211562870859E-04   1.118797658943288E-04
   1.146037175296250E-04   1.173946241869987E-04   1.202541386180337E-04
   1.231839543041491E-04   1.261858064522873E-04   1.292614730145620E-04
   1.324127757324296E-04   1.356415812059562E-04   1.389498019887669E-04
   1.423393977092788E-04   1.458123762188282E-04   1.493707947673206E-04
   1.530167612070435E-04   1.567524352252960E-04   1.605800296065056E-04
   1.645018115245147E-04   1.685201038657365E-04   1.726372865838944E-04
   1.768557980870746E-04   1.811781366578371E-04   1.856068619071484E-04
   1.901445962629125E-04   1.947940264938980E-04   1.995579052698711E-04
   2.044390527587671E-04   2.094403582617466E-04   2.145647818870035E-04
   2.198153562632090E-04   2.251951882934958E-04   2.307074609509038E-04
   2.363554351162318E-04   2.421424514592553E-04   2.480719323642954E-04
   2.541473839011397E-04   2.603723978423408E-04   2.667506537279388E-04
   2.732859209786738E-04   2.799820610587796E-04   2.868430296894701E-04
   2.938728791142537E-04   3.010757604172351E-04   3.084559258955868E-04
   3.160177314873955E-04   3.237656392561173E-04   3.317042199328948E-04
   3.398381555180202E-04   3.481722419428505E-04   3.567113917935077E-04
   3.654606370977275E-04   3.744251321762380E-04   3.836101565600895E-04
   3.930211179753737E-04   4.026635553968053E-04   4.125431421716644E-04
   4.226656892156309E-04   4.330371482820660E-04   4.436636153063333E-04
   4.545513338267753E-04   4.657066984839972E-04   4.771362586001386E-04
   4.888467218398455E-04   5.008449579546896E-04   5.131380026128106E-04
   5.257330613155934E-04   5.386375134032237E-04   5.518589161510019E-04
   5.654050089583238E-04   5.792837176322794E-04   5.935031587678478E-04
   6.080716442267088E-04   6.229976857167218E-04   6.382899994741620E-04
   6.539575110508410E-04   6.700093602082724E-04   6.864549059210848E-04
   7.033037314919164E-04   7.205656497800703E-04   7.382507085462423E-04
   7.563691959156724E-04   7.749316459621131E-04   7.939488444150435E-04
   8.134318344925979E-04   8.333919228627191E-04   8.538406857350835E-04
   8.747899750863884E-04   8.962519250216290E-04   9.182389582740337E-04
   9.407637928463687E-04   9.638394487963602E-04   9.874792551690262E-04
   1.011696857078746E-03   1.036506222943944E-03   1.061921651877297E-03
   1.087957781234414E-03   1.114629594323994E-03   1.141952428282478E-03
   1.169941982116285E-03   1.198614324914742E-03   1.227985904236848E-03
   1.258073554675085E-03   1.288894506599500E-03   1.320466395085318E-03
   1.352807269027413E-03   1.385935600444970E-03   1.419870293979732E-03
   1.454630696591237E-03   1.490236607452523E-03   1.526708288049773E-03
   1.564066472489430E-03   1.602332378016349E-03   1.641527715746571E-03
   1.681674701618336E-03   1.722796067565000E-03   1.764915072913527E-03
   1.808055516012270E-03   1.852241746091779E-03   1.897498675362386E-03
   1.943851791352367E-03   1.991327169490467E-03   2.039951485936629E-03
   2.089752030664761E-03   2.140756720801395E-03   2.192994114224120E-03
   2.246493423423665E-03   2.301284529633520E-03   2.357397997231002E-03
   2.414865088413658E-03   2.473717778154914E-03   2.533988769442853E-03
   2.595711508806048E-03   2.658920202130294E-03   2.723649830770143E-03
   2.789936167959081E-03   2.857815795522195E-03   2.927326120895122E-03
   2.998505394453096E-03   3.071392727153807E-03   3.146028108497818E-03
   3.222452424810188E-03   3.300707477846939E-03   3.380836003729934E-03
   3.462881692213677E-03   3.546889206287491E-03   3.632904202116438E-03
   3.720973349324309E-03   3.811144351621875E-03   3.903465967783549E-03
   3.997988032975486E-03   4.094761480438050E-03   4.193838363525452E-03
   4.295271878105278E-03   4.399116385320460E-03   4.505427434716117E-03
   4.614261787733557E-03   4.725677441573570E-03   4.839733653430967E-03
   4.956490965102154E-03   5.076011227967353E-03   5.198357628348851E-03
   5.323594713246507E-03   5.451788416451456E-03   5.583006085038782E-03
   5.717316506239658E-03   5.854789934693177E-03   5.995498120077875E-03
   6.139514335122605E-03   6.286913403996183E-03   6.437771731074856E-03
   6.592167330086357E-03   6.750179853628946E-03   6.911890623063473E-03
   7.077382658776152E-03   7.246740710809285E-03   7.420051289856831E-03
   7.597402698621210E-03   7.778885063527374E-03   7.964590366789601E-03
   8.154612478826071E-03   8.349047191015724E-03   8.547992248791386E-03
   8.751547385062591E-03   8.959814353960949E-03   9.172896964900349E-03
   9.390901116943566E-03   9.613934833466354E-03   9.842108297109275E-03
   1.007553388500691E-02   1.031432620428339E-02   1.055860212780234E-02
   1.080848083015867E-02   1.106408382389876E-02   1.132553499595482E-02
   1.159296064427823E-02   1.186648951465593E-02   1.214625283769289E-02
   1.243238436594279E-02   1.272502041116799E-02   1.302429988170897E-02
   1.333036431994223E-02   1.364335793980470E-02   1.396342766436137E-02
   1.429072316339204E-02   1.462539689097150E-02   1.496760412301650E-02
   1.531750299477154E-02   1.567525453820417E-02   1.604102271927911E-02
   1.641497447507927E-02   1.679727975074019E-02   1.718811153616298E-02
   1.758764590246944E-02   1.799606203816138E-02   1.841354228494467E-02
   1.884027217317677E-02   1.927644045689516E-02   1.972223914838198E-02
   2.017786355221861E-02   2.064351229878236E-02   2.111938737713511E-02
   2.160569416725236E-02   2.210264147153882E-02   2.261044154557509E-02
   2.312931012803754E-02   2.365946646973189E-02   2.420113336167849E-02
   2.475453716218550E-02   2.531990782284373E-02   2.589747891337481E-02
   2.648748764526210E-02   2.709017489409128E-02   2.770578522052550E-02
   2.833456688983721E-02   2.897677188991671E-02   2.963265594767478E-02
   3.030247854375420E-02   3.098650292546268E-02   3.168499611783681E-02
   3.239822893274429E-02   3.312647597592895E-02   3.387001565190030E-02
   3.462913016656674E-02   3.540410552750896E-02   3.619523154178691E-02
   3.700280181117133E-02   3.782711372468779E-02   3.866846844835850E-02
   3.952717091202411E-02   4.040352979312511E-02   4.129785749731953E-02
   4.221047013581038E-02   4.314168749925422E-02   4.409183302811838E-02
   4.506123377935237E-02   4.605022038923554E-02   4.705912703226063E-02
   4.808829137590973E-02   4.913805453117651E-02   5.020876099868597E-02
   5.130075861025980E-02   5.241439846577336E-02   5.355003486514692E-02
   5.470802523531203E-02   5.588873005199071E-02   5.709251275612299E-02
   5.831973966477601E-02   5.957077987636546E-02   6.084600517001809E-02
   6.214578989890173E-02   6.347051087734766E-02   6.482054726158785E-02
   6.619628042392837E-02   6.759809382017823E-02   6.902637285015192E-02
   7.048150471106251E-02   7.196387824362090E-02   7.347388377065635E-02
   7.501191292807255E-02   7.657835848795283E-02   7.817361417362854E-02
   7.979807446652393E-02   8.145213440459149E-02   8.313618937215278E-02
   8.485063488095969E-02   8.659586634229301E-02   8.837227882991659E-02
   9.018026683370713E-02   9.202022400378175E-02   9.389254288494858E-02
   9.579761464130820E-02   9.773582877083747E-02   9.970757280979101E-02
   1.017132320267604E-01   1.037531891062351E-01   1.058278238215163E-01
   1.079375126968373E-01   1.100826286585560E-01   1.122635406752853E-01
   1.144806133868417E-01   1.167342067218941E-01   1.190246755042098E-01
   1.213523690473991E-01   1.237176307380731E-01   1.261207976073397E-01
   1.285621998905729E-01   1.310421605754062E-01   1.335609949379084E-01
   1.361190100669217E-01   1.387165043765486E-01   1.413537671067961E-01
   1.440310778123977E-01   1.467487058398534E-01   1.495069097927448E-01
   1.523059369854015E-01   1.551460228850143E-01   1.580273905423121E-01
   1.609502500109409E-01   1.639147977557036E-01   1.669212160498456E-01
   1.699696723615930E-01   1.730603187301757E-01   1.761932911315933E-01
   1.793687088344083E-01   1.825866737458790E-01   1.858472697487702E-01
   1.891505620292123E-01   1.924965963960044E-01   1.958853985917908E-01
   1.993169735965676E-01   2.027913049240108E-01   2.063083539111445E-01
   2.098680590019030E-01   2.134703350251710E-01   2.171150724679201E-01
   2.208021367440889E-01   2.245313674598904E-01   2.283025776762611E-01
   2.321155531691962E-01   2.359700516887515E-01   2.398658022175210E-01
   2.438025042294307E-01   2.477798269497195E-01   2.517974086170093E-01
   2.558548557483922E-01   2.599517424084929E-01   2.640876094834903E-01
   2.682619639611089E-01   2.724742782176124E-01   2.767239893128596E-01
   2.810104982944995E-01   2.853331695124092E-01   2.896913299444915E-01
   2.940842685349730E-01   2.985112355463563E-01   3.029714419262002E-01
   3.074640586899133E-01   3.119882163207653E-01   3.165430041883321E-01
   3.211274699866056E-01   3.257406191930166E-01   3.303814145496322E-01
   3.350487755678064E-01   3.397415780575825E-01   3.444586536831659E-01
   3.491987895458086E-01   3.539607277954742E-01   3.587431652726816E-01
   3.635447531819617E-01   3.683640967983968E-01   3.731997552087611E-01
   3.780502410888251E-01   3.829140205184430E-01   3.877895128361015E-01
   3.926750905346713E-01   3.975690792001723E-01   4.024697574954334E-01
   4.073753571906054E-01   4.122840632425587E-01   4.171940139252751E-01
   4.221033010134191E-01   4.270099700213391E-01   4.319120204998219E-01
   4.368074063929739E-01   4.416940364576536E-01   4.465697747479090E-01
   4.514324411668985E-01   4.562798120887678E-01   4.611096210529412E-01
   4.659195595332447E-01   4.707072777842136E-01   4.754703857668517E-01
   4.802064541559952E-01   4.849130154312973E-01   4.895875650536848E-01
   4.942275627289506E-01   4.988304337599321E-01   5.033935704884902E-01
   5.079143338282467E-01   5.123900548887614E-01   5.168180366915366E-01
   5.211955559779263E-01   5.255198651087110E-01   5.297881940547599E-01
   5.339977524778710E-01   5.381457319005289E-01   5.422293079629787E-01
   5.462456427656590E-01   5.501918872946987E-01   5.540651839278330E-01
   5.578626690177568E-01   5.615814755496052E-01   5.652187358689237E-01
   5.687715844761798E-01   5.722371608835652E-01   5.756126125295433E-01
   5.788950977463251E-01   5.820817887751891E-01   5.851698748243129E-01
   5.881565651635520E-01   5.910390922503863E-01   5.938147148810561E-01
   5.964807213607246E-01   5.990344326863523E-01   6.014732057358159E-01
   6.037944364566895E-01   6.059955630480038E-01   6.080740691282156E-01
   6.100274868825686E-01   6.118534001829825E-01   6.135494476736018E-01
   6.151133258151390E-01   6.165427918811828E-01   6.178356668996942E-01
   6.189898385329941E-01   6.200032638896436E-01   6.208739722617438E-01
   6.216000677813253E-01   6.221797319896638E-01   6.226112263135473E-01
   6.228928944427248E-01   6.230231646029967E-01   6.230005517196447E-01
   6.228236594661689E-01   6.224911821935660E-01   6.220019067356825E-01
   6.213547140864715E-01   6.205485809453009E-01   6.195825811267769E-01
   6.184558868318828E-01   6.171677697775586E-01   6.157176021821924E-01
   6.141048576048234E-01   6.123291116361973E-01   6.103900424401472E-01
   6.082874311440922E-01   6.060211620777728E-01   6.035912228596394E-01
   6.009977043306125E-01   5.982408003352021E-01   5.953208073502433E-01
   5.922381239617409E-01   5.889932501905347E-01   5.855867866676983E-01
   5.820194336607459E-01   5.782919899518709E-01   5.744053515695504E-01
   5.703605103749304E-01   5.661585525044609E-01   5.618006566702635E-01
   5.572880923197000E-01   5.526222176555551E-01   5.478044775181578E-01
   5.428364011306446E-01   5.377195997083999E-01   5.324557639335133E-01
   5.270466612948588E-01   5.214941332941192E-01   5.158000925177815E-01
   5.099665195747712E-01   5.039954598990206E-01   4.978890204158431E-01
   4.916493660705431E-01   4.852787162172023E-01   4.787793408650731E-01
   4.721535567794659E-01   4.654037234334422E-01   4.585322388060302E-01
   4.515415350220466E-01   4.444340738279655E-01   4.372123418975954E-01
   4.298788459606341E-01   4.224361077464492E-01   4.148866587347037E-01
   4.072330347036821E-01   3.994777700664067E-01   3.916233919838401E-01
   3.836724142436596E-01   3.756273308922699E-01   3.674906096068716E-01
   3.592646847935421E-01   3.509519503964056E-01   3.425547524020637E-01
   3.340753810225269E-01   3.255160625389397E-01   3.168789507873969E-01
   3.081661182671334E-01   2.993795468504682E-01   2.905211180716042E-01
   2.815926023985346E-01   2.725956466527128E-01   2.635317630501080E-01
   2.544023209641811E-01   2.452085339087795E-01   2.359514468769746E-01
   2.266319230519619E-01   2.172506297954792E-01   2.078080239705479E-01
   1.983043365421448E-01   1.887395564170951E-01   1.791134134798185E-01
   1.694253607775009E-01   1.596745558048796E-01   1.498598408350295E-01
   1.399797222382652E-01   1.300323487264582E-01   1.200154884546148E-01
   1.099265049053894E-01   9.976233147519170E-02   8.951944467258692E-02
   7.919383583063150E-02   6.878098122450735E-02   5.827581047414742E-02
   4.767267309832805E-02   3.696530307176554E-02   2.614678121992230E-02
   1.520949526732621E-02   4.145097334062683E-03  -7.055541348455900E-03
  -1.840237875746628E-02  -2.990625371845338E-02  -4.157894117998242E-02
  -5.343321147413398E-02  -6.548289395085551E-02  -7.774294541584295E-02
  -9.022952384642632E-02  -1.029600679085974E-01  -1.159533828510950E-01
  -1.292297334097357E-01  -1.428109444174174E-01  -1.567205098830166E-01
  -1.709837113764447E-01  -1.856277466382510E-01  -2.006818694213362E-01
  -2.161775416706710E-01  -2.321485992556692E-01  -2.486314325904647E-01
  -2.656651836113660E-01  -2.832919607299823E-01  -3.015570735469115E-01
  -3.205092892966056E-01  -3.402011132015364E-01  -3.606890951457707E-01
  -3.820341653375617E-01  -4.043020019209677E-01  -4.275634338216448E-01
  -4.518948824761360E-01  -4.773788465020622E-01  -5.041044338241425E-01
  -5.321679462841695E-01  -5.616735223390742E-01  -5.927338440980964E-01
  -6.254709156770489E-01  -6.600169206652070E-01  -6.965151674204137E-01
  -7.351211319442358E-01  -7.760036092569748E-01  -8.193459855098860E-01
  -8.653476445594132E-01  -9.142255244089580E-01  -9.662158408243661E-01
  -1.021575997580580E+00  -1.080586705233929E+00  -1.143554333077679E+00
  -1.210813522074252E+00  -1.282730090119240E+00  -1.359704265041726E+00
  -1.442174285353286E+00  -1.530620414006315E+00  -1.625569416405699E+00
  -1.727599560745500E+00  -1.837346206541034E+00  -1.955508056143023E+00
  -2.082854154224445E+00  -2.220231731919799E+00  -2.368575005700032E+00
  -2.528915056451257E+00  -2.702390931902316E+00  -2.890262135877403E+00
  -3.093922691258007E+00  -3.314916990517091E+00  -3.554957678815007E+00
  -3.815945850597127E+00  -4.099993882199727E+00  -4.409451271082661E+00
  -4.746933908056739E+00  -5.115357273544295E+00  -5.517974124014793E+00
  -5.958417322055230E+00  -6.440748565170097E+00  -6.969513886841933E+00
  -7.549806941559625E+00  -8.187341246917734E+00  -8.888532744633206E+00
  -9.660594263315360E+00  -1.051164372488550E+01  -1.145082824060620E+01
  -1.248846660000915E+01  -1.363621307646282E+01  -1.490724596847800E+01
  -1.631648488020189E+01  -1.788084143478611E+01  -1.961950893068480E+01
  -2.155429741777565E+01  -2.371002181676875E+01  -2.611495206692804E+01
  -2.880133590620490E+01  -3.180600681584117E+01  -3.517109196048052E+01
  -3.894483770010933E+01  -4.318257353305969E+01  -4.794783926080723E+01
  -5.331370488040270E+01  -5.936431837362205E+01  -6.619672337411828E+01
  -7.392299690047166E+01  -8.267276724457496E+01  -9.259618406973745E+01
  -1.038674272537878E+02  -1.166888585659730E+02  -1.312959415784566E+02
  -1.479630811301614E+02  -1.670105652289076E+02  -1.888128307928728E+02
  -2.138083217013060E+02  -2.425112652437145E+02  -2.755257637113286E+02
  -3.135626846626031E+02  -3.574599401852840E+02  -4.082068771125504E+02
  -4.669736626984687E+02  -5.351467513389688E+02  -6.143717671258448E+02
  -7.066054464265054E+02  -8.141786695503362E+02  -9.398730901990962E+02
  -1.087014470275927E+03  -1.259586576827329E+03  -1.462370436969735E+03
  -1.701114926044673E+03  -1.982746148398031E+03  -2.315624941596899E+03
  -2.709864199433397E+03  -3.177720702801103E+03  -3.734079945781931E+03
  -4.397057273389623E+03  -5.188744800224003E+03  -6.136141435508504E+03
  -7.272313393040557E+03  -8.637845457108444E+03  -1.028265984624307E+04
  -1.226830086318671E+04  -1.467081108067986E+04  -1.758436047991558E+04
  -2.112583622345136E+04  -2.544066089736244E+04  -3.071018545400573E+04
  -3.716110550648774E+04  -4.507748375680068E+04  -5.481613743370758E+04
  -6.682638137953661E+04  -8.167542322650489E+04  -1.000811116265392E+05
  -1.229542749977837E+05  -1.514536016446917E+05  -1.870569632329493E+05
  -2.316543550719140E+05  -2.876693309758441E+05  -3.582181012562878E+05
  -4.473185499833819E+05  -5.601656008718023E+05  -7.034950177304450E+05
  -8.860654146445531E+05  -1.119298733723623E+06  -1.418133781200613E+06
  -1.802167068425978E+06  -2.297182240733723E+06  -2.937206678970767E+06
  -3.767285481943497E+06  -4.847234704639596E+06  -6.256735532736658E+06
  -8.102270511024500E+06  -1.052659837870833E+07  -1.372173888309265E+07
  -1.794682666841912E+07  -2.355274218777704E+07  -3.101620715548601E+07
  -4.098714313017194E+07  -5.435468086137700E+07  -7.233948864774768E+07
  -9.662337276515518E+07  -1.295318512229720E+08  -1.742922906431264E+08
  -2.354002265730473E+08  -3.191411476581943E+08  -4.343365315427392E+08
  -5.934145939657459E+08  -8.139530381259713E+08   0.000000000000000E+00
   0.000000000000000E+00   0.000000000000000E+00   0.000000000000000E+00
   0.000000000000000E+00   0.000000000000000E+00   0.000000000000000E+00
   0.000000000000000E+00   0.000000000000000E+00   0.000000000000000E+00
   0.000000000000000E+00   0.000000000000000E+00   0.000000000000000E+00
   0.000000000000000E+00   0.000000000000000E+00   0.000000000000000E+00
   0.000000000000000E+00   0.000000000000000E+00   0.000000000000000E+00
   0.000000000000000E+00   0.000000000000000E+00   0.000000000000000E+00
   0.000000000000000E+00   0.000000000000000E+00   0.000000000000000E+00
   0.000000000000000E+00   0.000000000000000E+00   0.000000000000000E+00
   0.000000000000000E+00   0.000000000000000E+00   0.000000000000000E+00
   0.000000000000000E+00   0.000000000000000E+00   0.000000000000000E+00
   0.000000000000000E+00   0.000000000000000E+00   0.000000000000000E+00
   0.000000000000000E+00   0.000000000000000E+00   0.000000000000000E+00
   0.000000000000000E+00   0.000000000000000E+00   0.000000000000000E+00
   0.000000000000000E+00   0.000000000000000E+00   0.000000000000000E+00
   0.000000000000000E+00   0.000000000000000E+00   0.000000000000000E+00
   0.000000000000000E+00   0.000000000000000E+00   0.000000000000000E+00
   0.000000000000000E+00   0.000000000000000E+00   0.000000000000000E+00
   0.000000000000000E+00   0.000000000000000E+00   0.000000000000000E+00
   0.000000000000000E+00   0.000000000000000E+00   0.000000000000000E+00
   0.000000000000000E+00   0.000000000000000E+00   0.000000000000000E+00
   0.000000000000000E+00   0.000000000000000E+00   0.000000000000000E+00
   0.000000000000000E+00   0.000000000000000E+00   0.000000000000000E+00
   0.000000000000000E+00   0.000000000000000E+00   0.000000000000000E+00
   0.000000000000000E+00   0.000000000000000E+00   0.000000000000000E+00
   0.000000000000000E+00   0.000000000000000E+00   0.000000000000000E+00
   0.000000000000000E+00   0.000000000000000E+00   0.000000000000000E+00
   0.000000000000000E+00   0.000000000000000E+00   0.000000000000000E+00
   0.000000000000000E+00   0.000000000000000E+00   0.000000000000000E+00
   0.000000000000000E+00   0.000000000000000E+00   0.000000000000000E+00
   0.000000000000000E+00   0.000000000000000E+00   0.000000000000000E+00
   0.000000000000000E+00   0.000000000000000E+00   0.000000000000000E+00
   0.000000000000000E+00   0.000000000000000E+00   0.000000000000000E+00
   0.000000000000000E+00   0.000000000000000E+00   0.000000000000000E+00
   0.000000000000000E+00   0.000000000000000E+00   0.000000000000000E+00
   0.000000000000000E+00   0.000000000000000E+00   0.000000000000000E+00
   0.000000000000000E+00   0.000000000000000E+00   0.000000000000000E+00
   0.000000000000000E+00   0.000000000000000E+00   0.000000000000000E+00
   0.000000000000000E+00   0.000000000000000E+00   0.000000000000000E+00
   0.000000000000000E+00   0.000000000000000E+00   0.000000000000000E+00
   0.000000000000000E+00   0.000000000000000E+00   0.000000000000000E+00
   0.000000000000000E+00   0.000000000000000E+00   0.000000000000000E+00
   0.000000000000000E+00   0.000000000000000E+00   0.000000000000000E+00
   0.000000000000000E+00   0.000000000000000E+00   0.000000000000000E+00
   0.000000000000000E+00   0.000000000000000E+00   0.000000000000000E+00
   0.000000000000000E+00   0.000000000000000E+00   0.000000000000000E+00
   0.000000000000000E+00   0.000000000000000E+00   0.000000000000000E+00
   0.000000000000000E+00   0.000000000000000E+00   0.000000000000000E+00
   0.000000000000000E+00   0.000000000000000E+00   0.000000000000000E+00
   0.000000000000000E+00   0.000000000000000E+00   0.000000000000000E+00
   0.000000000000000E+00   0.000000000000000E+00   0.000000000000000E+00
   0.000000000000000E+00
    </PP_AEWFC.4>
    <PP_PSWFC.1 size="1129" index="1" label="2S" l="0">
  -1.857937528198312E-04  -1.881307505040559E-04  -1.904971439991728E-04
  -1.928933030589177E-04  -1.953196020879543E-04  -1.977764202003749E-04
  -2.002641412789384E-04  -2.027831540350525E-04  -2.053338520695097E-04
  -2.079166339339900E-04  -2.105319031933332E-04  -2.131800684885979E-04
  -2.158615436009119E-04  -2.185767475161264E-04  -2.213261044902835E-04
  -2.241100441159062E-04  -2.269290013891237E-04  -2.297834167776399E-04
  -2.326737362895571E-04  -2.356004115430665E-04  -2.385638998370129E-04
  -2.415646642223490E-04  -2.446031735744884E-04  -2.476799026665674E-04
  -2.507953322436295E-04  -2.539499490977426E-04  -2.571442461440607E-04
  -2.603787224978430E-04  -2.636538835524412E-04  -2.669702410582689E-04
  -2.703283132027619E-04  -2.737286246913471E-04  -2.771717068294278E-04
  -2.806580976054012E-04  -2.841883417747203E-04  -2.877629909450125E-04
  -2.913826036622683E-04  -2.950477454981163E-04  -2.987589891381936E-04
  -3.025169144716301E-04  -3.063221086816550E-04  -3.101751663373466E-04
  -3.140766894865339E-04  -3.180272877498675E-04  -3.220275784160745E-04
  -3.260781865384092E-04  -3.301797450323195E-04  -3.343328947743407E-04
  -3.385382847022328E-04  -3.427965719163791E-04  -3.471084217824574E-04
  -3.514745080354054E-04  -3.558955128846919E-04  -3.603721271209128E-04
  -3.649050502237297E-04  -3.694949904711618E-04  -3.741426650502569E-04
  -3.788488001691522E-04  -3.836141311705445E-04  -3.884394026465904E-04
  -3.933253685552472E-04  -3.982727923380806E-04  -4.032824470395536E-04
  -4.083551154278144E-04  -4.134915901170067E-04  -4.186926736911139E-04
  -4.239591788293654E-04  -4.292919284332176E-04  -4.346917557549329E-04
  -4.401595045277775E-04  -4.456960290978530E-04  -4.513021945575906E-04
  -4.569788768809215E-04  -4.627269630601482E-04  -4.685473512445396E-04
  -4.744409508806645E-04  -4.804086828544949E-04  -4.864514796352949E-04
  -4.925702854213187E-04  -4.987660562873440E-04  -5.050397603340562E-04
  -5.113923778393167E-04  -5.178249014113308E-04  -5.243383361437432E-04
  -5.309336997726853E-04  -5.376120228357940E-04  -5.443743488332366E-04
  -5.512217343907551E-04  -5.581552494247654E-04  -5.651759773095334E-04
  -5.722850150464489E-04  -5.794834734354336E-04  -5.867724772485041E-04
  -5.941531654055164E-04  -6.016266911521231E-04  -6.091942222399662E-04
  -6.168569411091384E-04  -6.246160450729395E-04  -6.324727465049549E-04
  -6.404282730284911E-04  -6.484838677083870E-04  -6.566407892452451E-04
  -6.649003121721017E-04  -6.732637270535704E-04  -6.817323406874954E-04
  -6.903074763091330E-04  -6.989904737979082E-04  -7.077826898867689E-04
  -7.166854983741741E-04  -7.257002903387488E-04  -7.348284743566370E-04
  -7.440714767215893E-04  -7.534307416678212E-04  -7.629077315956703E-04
  -7.725039273000969E-04  -7.822208282020518E-04  -7.920599525827603E-04
  -8.020228378209503E-04  -8.121110406330642E-04  -8.223261373164942E-04
  -8.326697239958720E-04  -8.431434168724623E-04  -8.537488524766885E-04
  -8.644876879238365E-04  -8.753616011729780E-04  -8.863722912891396E-04
  -8.975214787087839E-04  -9.088109055086174E-04  -9.202423356777869E-04
  -9.318175553934981E-04  -9.435383733000950E-04  -9.554066207916585E-04
  -9.674241522981521E-04  -9.795928455751698E-04  -9.919146019973309E-04
  -1.004391346855357E-03  -1.017025029656892E-03  -1.029817624431105E-03
  -1.042771130037121E-03  -1.055887570476338E-03  -1.069168995208657E-03
  -1.082617479472711E-03  -1.096235124610099E-03  -1.110024058393718E-03
  -1.123986435360211E-03  -1.138124437146598E-03  -1.152440272831149E-03
  -1.166936179278531E-03  -1.181614421489311E-03  -1.196477292953843E-03
  -1.211527116010607E-03  -1.226766242209065E-03  -1.242197052677063E-03
  -1.257821958492872E-03  -1.273643401061896E-03  -1.289663852498122E-03
  -1.305885816010366E-03  -1.322311826293377E-03  -1.338944449923860E-03
  -1.355786285761487E-03  -1.372839965354928E-03  -1.390108153353019E-03
  -1.407593547921079E-03  -1.425298881162469E-03  -1.443226919545461E-03
  -1.461380464335455E-03  -1.479762352032660E-03  -1.498375454815247E-03
  -1.517222680988102E-03  -1.536306975437215E-03  -1.555631320089765E-03
  -1.575198734380025E-03  -1.595012275721093E-03  -1.615075039982575E-03
  -1.635390161974274E-03  -1.655960815935943E-03  -1.676790216033230E-03
  -1.697881616859824E-03  -1.719238313945941E-03  -1.740863644273196E-03
  -1.762760986795938E-03  -1.784933762969170E-03  -1.807385437283072E-03
  -1.830119517804268E-03  -1.853139556723903E-03  -1.876449150912582E-03
  -1.900051942482333E-03  -1.923951619355591E-03  -1.948151915841361E-03
  -1.972656613218635E-03  -1.997469540327103E-03  -2.022594574165352E-03
  -2.048035640496528E-03  -2.073796714461652E-03  -2.099881821200642E-03
  -2.126295036481111E-03  -2.153040487335129E-03  -2.180122352703933E-03
  -2.207544864090779E-03  -2.235312306222000E-03  -2.263429017716342E-03
  -2.291899391762774E-03  -2.320727876806755E-03  -2.349918977245179E-03
  -2.379477254130038E-03  -2.409407325880911E-03  -2.439713869006462E-03
  -2.470401618834951E-03  -2.501475370253964E-03  -2.532939978459443E-03
  -2.564800359714097E-03  -2.597061492115400E-03  -2.629728416373200E-03
  -2.662806236597114E-03  -2.696300121093848E-03  -2.730215303174481E-03
  -2.764557081971966E-03  -2.799330823268854E-03  -2.834541960335444E-03
  -2.870195994778473E-03  -2.906298497400443E-03  -2.942855109069805E-03
  -2.979871541602011E-03  -3.017353578651693E-03  -3.055307076616041E-03
  -3.093737965549502E-03  -3.132652250090036E-03  -3.172056010396955E-03
  -3.211955403100574E-03  -3.252356662263808E-03  -3.293266100355807E-03
  -3.334690109237896E-03  -3.376635161161830E-03  -3.419107809780640E-03
  -3.462114691172182E-03  -3.505662524875491E-03  -3.549758114940247E-03
  -3.594408350989340E-03  -3.639620209294833E-03  -3.685400753867441E-03
  -3.731757137559655E-03  -3.778696603182800E-03  -3.826226484638044E-03
  -3.874354208061667E-03  -3.923087292984705E-03  -3.972433353507139E-03
  -4.022400099486874E-03  -4.072995337743601E-03  -4.124226973277812E-03
  -4.176103010505135E-03  -4.228631554506116E-03  -4.281820812291773E-03
  -4.335679094084965E-03  -4.390214814617909E-03  -4.445436494445958E-03
  -4.501352761277885E-03  -4.557972351322875E-03  -4.615304110654405E-03
  -4.673356996591269E-03  -4.732140079095944E-03  -4.791662542190479E-03
  -4.851933685390189E-03  -4.912962925155318E-03  -4.974759796360942E-03
  -5.037333953785313E-03  -5.100695173616868E-03  -5.164853354980172E-03
  -5.229818521480988E-03  -5.295600822770739E-03  -5.362210536130610E-03
  -5.429658068075500E-03  -5.497953955978131E-03  -5.567108869713473E-03
  -5.637133613323859E-03  -5.708039126704943E-03  -5.779836487312806E-03
  -5.852536911892492E-03  -5.926151758228184E-03  -6.000692526915347E-03
  -6.076170863155098E-03  -6.152598558571037E-03  -6.229987553048885E-03
  -6.308349936599156E-03  -6.387697951243188E-03  -6.468043992922813E-03
  -6.549400613433924E-03  -6.631780522384324E-03  -6.715196589176044E-03
  -6.799661845012527E-03  -6.885189484930959E-03  -6.971792869860015E-03
  -7.059485528703421E-03  -7.148281160449564E-03  -7.238193636307538E-03
  -7.329237001869932E-03  -7.421425479302663E-03  -7.514773469562248E-03
  -7.609295554640796E-03  -7.705006499839101E-03  -7.801921256068182E-03
  -7.900054962179584E-03  -7.999422947324857E-03  -8.100040733344506E-03
  -8.201924037186840E-03  -8.305088773357052E-03  -8.409551056396883E-03
  -8.515327203395328E-03  -8.622433736530656E-03  -8.730887385644232E-03
  -8.840705090846465E-03  -8.951904005155302E-03  -9.064501497167685E-03
  -9.178515153764340E-03  -9.293962782848306E-03  -9.410862416117721E-03
  -9.529232311873080E-03  -9.649090957859634E-03  -9.770457074145138E-03
  -9.893349616033538E-03  -1.001778777701498E-02  -1.014379099175256E-02
  -1.027137893910627E-02  -1.040057154519469E-02  -1.053138898649473E-02
  -1.066385169298000E-02  -1.079798035129829E-02  -1.093379590798846E-02
  -1.107131957273752E-02  -1.121057282167808E-02  -1.135157740072686E-02
  -1.149435532896475E-02  -1.163892890205873E-02  -1.178532069572644E-02
  -1.193355356924370E-02  -1.208365066899557E-02  -1.223563543207156E-02
  -1.238953158990530E-02  -1.254536317195949E-02  -1.270315450945645E-02
  -1.286293023915490E-02  -1.302471530717361E-02  -1.318853497286225E-02
  -1.335441481272030E-02  -1.352238072436434E-02  -1.369245893054446E-02
  -1.386467598321035E-02  -1.403905876762754E-02  -1.421563450654453E-02
  -1.439443076441138E-02  -1.457547545165033E-02  -1.475879682897913E-02
  -1.494442351178756E-02  -1.513238447456798E-02  -1.532270905540038E-02
  -1.551542696049262E-02  -1.571056826877661E-02  -1.590816343656081E-02
  -1.610824330224004E-02  -1.631083909106307E-02  -1.651598241995869E-02
  -1.672370530242102E-02  -1.693404015345455E-02  -1.714701979457991E-02
  -1.736267745890078E-02  -1.758104679623279E-02  -1.780216187829515E-02
  -1.802605720396553E-02  -1.825276770459924E-02  -1.848232874941308E-02
  -1.871477615093493E-02  -1.895014617051956E-02  -1.918847552393155E-02
  -1.942980138699603E-02  -1.967416140131806E-02  -1.992159368007131E-02
  -2.017213681385694E-02  -2.042582987663331E-02  -2.068271243171748E-02
  -2.094282453785917E-02  -2.120620675538795E-02  -2.147290015243469E-02
  -2.174294631122771E-02  -2.201638733446474E-02  -2.229326585176148E-02
  -2.257362502617744E-02  -2.285750856081992E-02  -2.314496070552726E-02
  -2.343602626363156E-02  -2.373075059880247E-02  -2.402917964197240E-02
  -2.433135989834406E-02  -2.463733845448150E-02  -2.494716298548494E-02
  -2.526088176225096E-02  -2.557854365881827E-02  -2.590019815980038E-02
  -2.622589536790586E-02  -2.655568601154702E-02  -2.688962145253792E-02
  -2.722775369388288E-02  -2.757013538765576E-02  -2.791681984297167E-02
  -2.826786103405114E-02  -2.862331360837846E-02  -2.898323289495452E-02
  -2.934767491264522E-02  -2.971669637862649E-02  -3.009035471692637E-02
  -3.046870806706560E-02  -3.085181529279726E-02  -3.123973599094618E-02
  -3.163253050034971E-02  -3.203025991089960E-02  -3.243298607268711E-02
  -3.284077160525118E-02  -3.325367990693116E-02  -3.367177516432482E-02
  -3.409512236185206E-02  -3.452378729142593E-02  -3.495783656223111E-02
  -3.539733761061110E-02  -3.584235871006471E-02  -3.629296898135262E-02
  -3.674923840271514E-02  -3.721123782020151E-02  -3.767903895811178E-02
  -3.815271442955209E-02  -3.863233774710360E-02  -3.911798333360646E-02
  -3.960972653305909E-02  -4.010764362163348E-02  -4.061181181880748E-02
  -4.112230929861405E-02  -4.163921520100895E-02  -4.216260964335686E-02
  -4.269257373203651E-02  -4.322918957416587E-02  -4.377254028944709E-02
  -4.432271002213242E-02  -4.487978395311111E-02  -4.544384831211790E-02
  -4.601499039006331E-02  -4.659329855148610E-02  -4.717886224712835E-02
  -4.777177202663310E-02  -4.837211955136503E-02  -4.897999760735428E-02
  -4.959550011836308E-02  -5.021872215907594E-02  -5.084975996841293E-02
  -5.148871096296586E-02  -5.213567375055785E-02  -5.279074814392508E-02
  -5.345403517452146E-02  -5.412563710644541E-02  -5.480565745048802E-02
  -5.549420097830286E-02  -5.619137373669607E-02  -5.689728306203645E-02
  -5.761203759478502E-02  -5.833574729414245E-02  -5.906852345281433E-02
  -5.981047871189223E-02  -6.056172707585034E-02  -6.132238392765563E-02
  -6.209256604399052E-02  -6.287239161058666E-02  -6.366198023766739E-02
  -6.446145297549813E-02  -6.527093233004198E-02  -6.609054227871873E-02
  -6.692040828626522E-02  -6.776065732069379E-02  -6.861141786934760E-02
  -6.947281995504880E-02  -7.034499515233725E-02  -7.122807660379679E-02
  -7.212219903646498E-02  -7.302749877832344E-02  -7.394411377486504E-02
  -7.487218360573336E-02  -7.581184950143095E-02  -7.676325436009100E-02
  -7.772654276430872E-02  -7.870186099802667E-02  -7.968935706346880E-02
  -8.068918069811867E-02  -8.170148339173379E-02  -8.272641840339241E-02
  -8.376414077856451E-02  -8.481480736620084E-02  -8.587857683583282E-02
  -8.695560969467499E-02  -8.804606830472311E-02  -8.915011689983907E-02
  -9.026792160281313E-02  -9.139965044239604E-02  -9.254547337028890E-02
  -9.370556227808305E-02  -9.488009101413791E-02  -9.606923540038577E-02
  -9.727317324905282E-02  -9.849208437928259E-02  -9.972615063365073E-02
  -1.009755558945566E-01  -1.022404861004783E-01  -1.035211292620762E-01
  -1.048176754781297E-01  -1.061303169512913E-01  -1.074592480036420E-01
  -1.088046650920289E-01  -1.101667668231688E-01  -1.115457539684970E-01
  -1.129418294787432E-01  -1.143551984982121E-01  -1.157860683787482E-01
  -1.172346486933626E-01  -1.187011512494964E-01  -1.201857901018984E-01
  -1.216887815650904E-01  -1.232103442253942E-01  -1.247506989524910E-01
  -1.263100689104862E-01  -1.278886795684482E-01  -1.294867587103908E-01
  -1.311045364446653E-01  -1.327422452127296E-01  -1.344001197972576E-01
  -1.360783973295531E-01  -1.377773172962298E-01  -1.394971215451159E-01
  -1.412380542903443E-01  -1.430003621165826E-01  -1.447842939823603E-01
  -1.465901012224441E-01  -1.484180375492151E-01  -1.502683590529952E-01
  -1.521413242012714E-01  -1.540371938367633E-01  -1.559562311742763E-01
  -1.578987017962824E-01  -1.598648736471671E-01  -1.618550170260774E-01
  -1.638694045783071E-01  -1.659083112851492E-01  -1.679720144521434E-01
  -1.700607936956474E-01  -1.721749309276510E-01  -1.743147103387566E-01
  -1.764804183792421E-01  -1.786723437381197E-01  -1.808907773201021E-01
  -1.831360122203821E-01  -1.854083436971318E-01  -1.877080691416199E-01
  -1.900354880458440E-01  -1.923909019675724E-01  -1.947746144926806E-01
  -1.971869311946718E-01  -1.996281595912588E-01  -2.020986090978838E-01
  -2.045985909780504E-01  -2.071284182903305E-01  -2.096884058319123E-01
  -2.122788700785452E-01  -2.149001291207330E-01  -2.175525025960247E-01
  -2.202363116172408E-01  -2.229518786964754E-01  -2.256995276647006E-01
  -2.284795835868002E-01  -2.312923726718491E-01  -2.341382221784499E-01
  -2.370174603149349E-01  -2.399304161342286E-01  -2.428774194231649E-01
  -2.458588005860440E-01  -2.488748905222030E-01  -2.519260204973756E-01
  -2.550125220085991E-01  -2.581347266424251E-01  -2.612929659261801E-01
  -2.644875711720125E-01  -2.677188733134595E-01  -2.709872027342496E-01
  -2.742928890890574E-01  -2.776362611159113E-01  -2.810176464399456E-01
  -2.844373713681852E-01  -2.878957606750335E-01  -2.913931373781279E-01
  -2.949298225042192E-01  -2.985061348447121E-01  -3.021223907005073E-01
  -3.057789036157607E-01  -3.094759841001716E-01  -3.132139393394024E-01
  -3.169930728932119E-01  -3.208136843808825E-01  -3.246760691535061E-01
  -3.285805179526759E-01  -3.325273165551304E-01  -3.365167454028724E-01
  -3.405490792182806E-01  -3.446245866037175E-01  -3.487435296251199E-01
  -3.529061633790552E-01  -3.571127355427002E-01  -3.613634859062032E-01
  -3.656586458868600E-01  -3.699984380245364E-01  -3.743830754577463E-01
  -3.788127613797874E-01  -3.832876884743242E-01  -3.878080383297910E-01
  -3.923739808319827E-01  -3.969856735341807E-01  -4.016432610041554E-01
  -4.063468741473785E-01  -4.110966295057547E-01  -4.158926285311884E-01
  -4.207349568332803E-01  -4.256236834004400E-01  -4.305588597937001E-01
  -4.355405193125010E-01  -4.405686761317130E-01  -4.456433244091584E-01
  -4.507644373628840E-01  -4.559319663174414E-01  -4.611458397184235E-01
  -4.664059621145042E-01  -4.717122131062376E-01  -4.770644462608609E-01
  -4.824624879923686E-01  -4.879061364061162E-01  -4.933951601072282E-01
  -4.989292969720983E-01  -5.045082528822750E-01  -5.101317004200557E-01
  -5.157992775251210E-01  -5.215105861115685E-01  -5.272651906447385E-01
  -5.330626166772363E-01  -5.389023493436238E-01  -5.447838318132520E-01
  -5.507064637007794E-01  -5.566695994339714E-01  -5.626725465783993E-01
  -5.687145641187651E-01  -5.747948606966001E-01  -5.809125928041882E-01
  -5.870668629346425E-01  -5.932567176881272E-01  -5.994811458343542E-01
  -6.057390763315493E-01  -6.120293763022143E-01  -6.183508489661519E-01
  -6.247022315313013E-01  -6.310821930431494E-01  -6.374893321935656E-01
  -6.439221750901261E-01  -6.503791729871568E-01  -6.568586999799034E-01
  -6.633590506634744E-01  -6.698784377583925E-01  -6.764149897048471E-01
  -6.829667482279997E-01  -6.895316658769296E-01  -6.961076035401490E-01
  -7.026923279408688E-01  -7.092835091155570E-01  -7.158787178796803E-01
  -7.224754232848460E-01  -7.290709900720147E-01  -7.356626761257997E-01
  -7.422476299353500E-01  -7.488228880677672E-01  -7.553853726604575E-01
  -7.619318889393866E-01  -7.684591227706883E-01  -7.749636382536734E-01
  -7.814418753638847E-01  -7.878901476554201E-01  -7.943046400324637E-01
  -8.006814066005736E-01  -8.070163686090379E-01  -8.133053124963266E-01
  -8.195438880514270E-01  -8.257276067046787E-01  -8.318518399625187E-01
  -8.379118180014252E-01  -8.439026284372412E-01  -8.498192152869403E-01
  -8.556563781408784E-01  -8.614087715645061E-01  -8.670709047495161E-01
  -8.726371414354245E-01  -8.781017001235685E-01  -8.834586546065970E-01
  -8.887019348375367E-01  -8.938253281636003E-01  -8.988224809509694E-01
  -9.036869006278128E-01  -9.084119581738939E-01  -9.129908910861134E-01
  -9.174168068503690E-01  -9.216826869510909E-01  -9.257813914507238E-01
  -9.297056641723478E-01  -9.334481385194128E-01  -9.370013439673287E-01
  -9.403577132623051E-01  -9.435095903633559E-01  -9.464492391638490E-01
  -9.491688530292186E-01  -9.516605651876150E-01  -9.539164600101848E-01
  -9.559285852174132E-01  -9.576889650474659E-01  -9.591896144217077E-01
  -9.604225541415341E-01  -9.613798271493030E-01  -9.620535158844309E-01
  -9.624357607636416E-01  -9.625187798118309E-01  -9.622948894670472E-01
  -9.617565265796061E-01  -9.608962716213481E-01  -9.597068731164394E-01
  -9.581812732998768E-01  -9.563126350039337E-01  -9.540943697661352E-01
  -9.515201671449043E-01  -9.485840252207545E-01  -9.452802822517424E-01
  -9.416036494417973E-01  -9.375492447694440E-01  -9.331126278123201E-01
  -9.282898354896479E-01  -9.230774186304659E-01  -9.174724792598814E-01
  -9.114727084788268E-01  -9.050764247947978E-01  -8.982826127417236E-01
  -8.910909616065426E-01  -8.835019040581064E-01  -8.755166544508316E-01
  -8.671372465510109E-01  -8.583665704078819E-01  -8.492084080646134E-01
  -8.396674677762180E-01  -8.297494163722166E-01  -8.194609093718415E-01
  -8.088096184286206E-01  -7.978042556498056E-01  -7.864545943042258E-01
  -7.747714854002119E-01  -7.627668695835494E-01  -7.504537837741275E-01
  -7.378463619298083E-01  -7.249598292971640E-01  -7.118104894818349E-01
  -6.984157036470036E-01  -6.847938611271998E-01  -6.709643407275691E-01
  -6.569474619661584E-01  -6.427644255099383E-01  -6.284372420551110E-01
  -6.139886489095479E-01  -5.994420135515707E-01  -5.848212234654246E-01
  -5.701505615915122E-01  -5.554545667797441E-01  -5.407578786988987E-01
  -5.260850667352300E-01  -5.114604425110282E-01  -4.969078557704347E-01
  -4.824504735168149E-01  -4.681105424452560E-01  -4.539091348969155E-01
  -4.398658787702984E-01  -4.259986720599700E-01  -4.123233829566122E-01
  -3.988535367351285E-01  -3.855999909805743E-01  -3.725706010554174E-01
  -3.597698780965630E-01  -3.471998638627692E-01  -3.348647211924696E-01
  -3.227691068605305E-01  -3.109172502202953E-01  -2.993129531888949E-01
  -2.879595912227055E-01  -2.768601152866610E-01  -2.660170548159483E-01
  -2.554325216630307E-01  -2.451082150170493E-01  -2.350454272765305E-01
  -2.252450508501014E-01  -2.157075858537283E-01  -2.064331486669865E-01
  -1.974214813052052E-01  -1.886719615591679E-01  -1.801836138495082E-01
  -1.719551207391696E-01  -1.639848350443544E-01  -1.562707924823523E-01
  -1.488107247935104E-01  -1.416020732743669E-01  -1.346420026595637E-01
  -1.279274152914782E-01  -1.214549655184759E-01  -1.152210742651350E-01
  -1.092219437206092E-01  -1.034535720943463E-01  -9.791176839153982E-02
  -9.259216716385135E-02  -8.749024319401866E-02  -8.260132607588741E-02
  -7.792061465412510E-02  -7.344319129037018E-02  -6.916403592482206E-02
  -6.507803990429915E-02  -6.118001954959233E-02  -5.746472943655161E-02
  -5.392687536678852E-02  -5.056112700519477E-02  -4.736213016269864E-02
  -4.432451870384219E-02  -4.144292605989112E-02  -3.871199632931644E-02
  -3.612639494863423E-02  -3.368081891777690E-02  -3.137000656541174E-02
  -2.918874684093006E-02  -2.713188812120994E-02  -2.519434652171063E-02
  -2.337111370298482E-02  -2.165726416529475E-02  -2.004796202568109E-02
  -1.853846727355257E-02  -1.712414150262825E-02  -1.580045311886179E-02
  -1.456298202579477E-02  -1.340742379061120E-02  -1.232959329598248E-02
  -1.132542788458860E-02  -1.039099000496152E-02  -9.522469369008186E-03
  -8.716184633218807E-03  -7.968584617139235E-03  -7.276249074172176E-03
  -6.635889031160088E-03  -6.044346714482778E-03  -5.498595081566926E-03
  -4.995736977745190E-03  -4.533003939313365E-03  -4.107754664410725E-03
  -3.717473173987329E-03  -3.359766685621220E-03  -3.032363223306962E-03
  -2.733108986555589E-03  -2.459965502226586E-03  -2.211006582457947E-03
  -1.984415111874839E-03  -1.778479686946056E-03  -1.591591129926508E-03
  -1.422238899280338E-03  -1.269007417830819E-03  -1.130572339138213E-03
  -1.005696771774484E-03  -8.932274802533665E-04  -7.920910803957700E-04
  -7.012902458736970E-04  -6.198999415910416E-04  -5.470636984367993E-04
  -4.819899427954916E-04  -4.239483930308312E-04  -3.722665339813732E-04
  -3.263261793303542E-04  -2.855601305448735E-04  -2.494489399302860E-04
  -2.175177842218522E-04  -1.893334540444006E-04  -1.645014635184159E-04
  -1.426632832832946E-04  -1.234936992505008E-04  -1.066982984952883E-04
  -9.201108284904971E-05  -7.919220996801747E-05  -6.802586093003348E-05
  -5.831823275081385E-05  -4.989565361523721E-05  -4.260281808774366E-05
  -3.630113909838453E-05  -3.086721309629780E-05  -2.619139441876935E-05
  -2.217647463948514E-05  -1.873646243158343E-05  -1.579545930682420E-05
  -1.328662646845520E-05  -1.115123793877583E-05  -9.337815089403225E-06
  -7.801337709118811E-06  -6.502526787125380E-06  -5.407194264752926E-06
  -4.485655112307262E-06  -3.712197216108301E-06  -3.064604710158771E-06
  -2.523730553793372E-06  -2.073114337715437E-06  -1.698641492850580E-06
  -1.388240276455891E-06  -1.131613115161506E-06  -9.199990925625833E-07
  -7.459645773368814E-07  -6.032191945907284E-07  -4.864545464292677E-07
  -3.912032860362258E-07  -3.137163414919098E-07  -2.508562700290091E-07
  -2.000048994971751E-07  -1.589835807355606E-07  -1.259845317439453E-07
  -9.951190159338166E-08  -7.833131829605583E-08  -6.142681169491969E-08
  -4.796411002543007E-08  -3.725945384706182E-08  -2.875293049260028E-08
  -2.198657296208317E-08  -1.658258589612533E-08  -1.225579181056789E-08
  -8.629806274807771E-09   0.000000000000000E+00   0.000000000000000E+00
   0.000000000000000E+00   0.000000000000000E+00   0.000000000000000E+00
   0.000000000000000E+00   0.000000000000000E+00   0.000000000000000E+00
   0.000000000000000E+00   0.000000000000000E+00   0.000000000000000E+00
   0.000000000000000E+00   0.000000000000000E+00   0.000000000000000E+00
   0.000000000000000E+00   0.000000000000000E+00   0.000000000000000E+00
   0.000000000000000E+00   0.000000000000000E+00   0.000000000000000E+00
   0.000000000000000E+00   0.000000000000000E+00   0.000000000000000E+00
   0.000000000000000E+00   0.000000000000000E+00   0.000000000000000E+00
   0.000000000000000E+00   0.000000000000000E+00   0.000000000000000E+00
   0.000000000000000E+00   0.000000000000000E+00   0.000000000000000E+00
   0.000000000000000E+00   0.000000000000000E+00   0.000000000000000E+00
   0.000000000000000E+00   0.000000000000000E+00   0.000000000000000E+00
   0.000000000000000E+00   0.000000000000000E+00   0.000000000000000E+00
   0.000000000000000E+00   0.000000000000000E+00   0.000000000000000E+00
   0.000000000000000E+00   0.000000000000000E+00   0.000000000000000E+00
   0.000000000000000E+00   0.000000000000000E+00   0.000000000000000E+00
   0.000000000000000E+00   0.000000000000000E+00   0.000000000000000E+00
   0.000000000000000E+00   0.000000000000000E+00   0.000000000000000E+00
   0.000000000000000E+00   0.000000000000000E+00   0.000000000000000E+00
   0.000000000000000E+00   0.000000000000000E+00   0.000000000000000E+00
   0.000000000000000E+00   0.000000000000000E+00   0.000000000000000E+00
   0.000000000000000E+00   0.000000000000000E+00   0.000000000000000E+00
   0.000000000000000E+00   0.000000000000000E+00   0.000000000000000E+00
   0.000000000000000E+00   0.000000000000000E+00   0.000000000000000E+00
   0.000000000000000E+00   0.000000000000000E+00   0.000000000000000E+00
   0.000000000000000E+00   0.000000000000000E+00   0.000000000000000E+00
   0.000000000000000E+00   0.000000000000000E+00   0.000000000000000E+00
   0.000000000000000E+00   0.000000000000000E+00   0.000000000000000E+00
   0.000000000000000E+00   0.000000000000000E+00   0.000000000000000E+00
   0.000000000000000E+00   0.000000000000000E+00   0.000000000000000E+00
   0.000000000000000E+00   0.000000000000000E+00   0.000000000000000E+00
   0.000000000000000E+00   0.000000000000000E+00   0.000000000000000E+00
   0.000000000000000E+00   0.000000000000000E+00   0.000000000000000E+00
   0.000000000000000E+00   0.000000000000000E+00   0.000000000000000E+00
   0.000000000000000E+00   0.000000000000000E+00   0.000000000000000E+00
   0.000000000000000E+00   0.000000000000000E+00   0.000000000000000E+00
   0.000000000000000E+00   0.000000000000000E+00   0.000000000000000E+00
   0.000000000000000E+00   0.000000000000000E+00   0.000000000000000E+00
   0.000000000000000E+00   0.000000000000000E+00   0.000000000000000E+00
   0.000000000000000E+00   0.000000000000000E+00   0.000000000000000E+00
   0.000000000000000E+00   0.000000000000000E+00   0.000000000000000E+00
   0.000000000000000E+00   0.000000000000000E+00   0.000000000000000E+00
   0.000000000000000E+00   0.000000000000000E+00   0.000000000000000E+00
   0.000000000000000E+00   0.000000000000000E+00   0.000000000000000E+00
   0.000000000000000E+00   0.000000000000000E+00   0.000000000000000E+00
   0.000000000000000E+00   0.000000000000000E+00   0.000000000000000E+00
   0.000000000000000E+00   0.000000000000000E+00   0.000000000000000E+00
   0.000000000000000E+00   0.000000000000000E+00   0.000000000000000E+00
   0.000000000000000E+00   0.000000000000000E+00   0.000000000000000E+00
   0.000000000000000E+00   0.000000000000000E+00   0.000000000000000E+00
   0.000000000000000E+00   0.000000000000000E+00   0.000000000000000E+00
   0.000000000000000E+00   0.000000000000000E+00   0.000000000000000E+00
   0.000000000000000E+00   0.000000000000000E+00   0.000000000000000E+00
   0.000000000000000E+00   0.000000000000000E+00   0.000000000000000E+00
   0.000000000000000E+00   0.000000000000000E+00   0.000000000000000E+00
   0.000000000000000E+00   0.000000000000000E+00   0.000000000000000E+00
   0.000000000000000E+00   0.000000000000000E+00   0.000000000000000E+00
   0.000000000000000E+00   0.000000000000000E+00   0.000000000000000E+00
   0.000000000000000E+00   0.000000000000000E+00   0.000000000000000E+00
   0.000000000000000E+00   0.000000000000000E+00   0.000000000000000E+00
   0.000000000000000E+00   0.000000000000000E+00   0.000000000000000E+00
   0.000000000000000E+00   0.000000000000000E+00   0.000000000000000E+00
   0.000000000000000E+00   0.000000000000000E+00   0.000000000000000E+00
   0.000000000000000E+00   0.000000000000000E+00   0.000000000000000E+00
   0.000000000000000E+00
    </PP_PSWFC.1>
    <PP_PSWFC.2 size="1129" index="2" label="3S" l="0">
  -1.730815756779604E-04  -1.752586738256010E-04  -1.774631564943223E-04
  -1.796953681389014E-04  -1.819556575468196E-04  -1.842443778927606E-04
  -1.865618867937950E-04  -1.889085463652586E-04  -1.912847232773325E-04
  -1.936907888123375E-04  -1.961271189227460E-04  -1.985940942899257E-04
  -2.010921003836218E-04  -2.036215275221864E-04  -2.061827709335678E-04
  -2.087762308170637E-04  -2.114023124058538E-04  -2.140614260303177E-04
  -2.167539871821498E-04  -2.194804165792808E-04  -2.222411402316143E-04
  -2.250365895075921E-04  -2.278672012015962E-04  -2.307334176021980E-04
  -2.336356865612669E-04  -2.365744615639472E-04  -2.395502017995159E-04
  -2.425633722331316E-04  -2.456144436784855E-04  -2.487038928713674E-04
  -2.518322025441550E-04  -2.549998615012419E-04  -2.582073646954143E-04
  -2.614552133051865E-04  -2.647439148131125E-04  -2.680739830850785E-04
  -2.714459384505962E-04  -2.748603077841046E-04  -2.783176245872938E-04
  -2.818184290724667E-04  -2.853632682469458E-04  -2.889526959985443E-04
  -2.925872731821117E-04  -2.962675677071670E-04  -2.999941546266363E-04
  -3.037676162267037E-04  -3.075885421177943E-04  -3.114575293267014E-04
  -3.153751823898721E-04  -3.193421134478671E-04  -3.233589423410062E-04
  -3.274262967062202E-04  -3.315448120751188E-04  -3.357151319732920E-04
  -3.399379080208632E-04  -3.442138000343019E-04  -3.485434761295228E-04
  -3.529276128262774E-04  -3.573668951538609E-04  -3.618620167581485E-04
  -3.664136800099762E-04  -3.710225961148877E-04  -3.756894852242586E-04
  -3.804150765478212E-04  -3.852001084676032E-04  -3.900453286532991E-04
  -3.949514941790931E-04  -3.999193716419529E-04  -4.049497372814081E-04
  -4.100433771008399E-04  -4.152010869902911E-04  -4.204236728508243E-04
  -4.257119507204440E-04  -4.310667469016003E-04  -4.364888980903004E-04
  -4.419792515068388E-04  -4.475386650281758E-04  -4.531680073219806E-04
  -4.588681579823574E-04  -4.646400076672844E-04  -4.704844582377735E-04
  -4.764024228987880E-04  -4.823948263419283E-04  -4.884626048899131E-04
  -4.946067066428797E-04  -5.008280916265209E-04  -5.071277319420883E-04
  -5.135066119182812E-04  -5.199657282650451E-04  -5.265060902293073E-04
  -5.331287197526663E-04  -5.398346516310703E-04  -5.466249336765002E-04
  -5.535006268806872E-04  -5.604628055808918E-04  -5.675125576277624E-04
  -5.746509845553122E-04  -5.818792017530271E-04  -5.891983386401439E-04
  -5.966095388421187E-04  -6.041139603693113E-04  -6.117127757979221E-04
  -6.194071724532030E-04  -6.271983525949700E-04  -6.350875336054551E-04
  -6.430759481795122E-04  -6.511648445172238E-04  -6.593554865189241E-04
  -6.676491539826788E-04  -6.760471428042480E-04  -6.845507651795599E-04
  -6.931613498097374E-04  -7.018802421086986E-04  -7.107088044133708E-04
  -7.196484161965480E-04  -7.287004742824240E-04  -7.378663930648365E-04
  -7.471476047282600E-04  -7.565455594715706E-04  -7.660617257346342E-04
  -7.756975904277353E-04  -7.854546591638986E-04  -7.953344564941271E-04
  -8.053385261456023E-04  -8.154684312628806E-04  -8.257257546521175E-04
  -8.361120990283700E-04  -8.466290872660058E-04  -8.572783626522616E-04
  -8.680615891439934E-04  -8.789804516276494E-04  -8.900366561825196E-04
  -9.012319303472913E-04  -9.125680233899583E-04  -9.240467065811268E-04
  -9.356697734707530E-04  -9.474390401683652E-04  -9.593563456268095E-04
  -9.714235519295621E-04  -9.836425445816585E-04  -9.960152328042753E-04
  -1.008543549833020E-03  -1.021229453219977E-03  -1.034074925139538E-03
  -1.047081972698098E-03  -1.060252628247625E-03  -1.073588949703188E-03
  -1.087093020864476E-03  -1.100766951741348E-03  -1.114612878883495E-03
  -1.128632965714233E-03  -1.142829402868501E-03  -1.157204408535106E-03
  -1.171760228803271E-03  -1.186499138013548E-03  -1.201423439113130E-03
  -1.216535464015644E-03  -1.231837573965461E-03  -1.247332159906589E-03
  -1.263021642856204E-03  -1.278908474282876E-03  -1.294995136489557E-03
  -1.311284143001376E-03  -1.327778038958311E-03  -1.344479401512816E-03
  -1.361390840232412E-03  -1.378514997507377E-03  -1.395854548963540E-03
  -1.413412203880265E-03  -1.431190705613710E-03  -1.449192832025374E-03
  -1.467421395916071E-03  -1.485879245465326E-03  -1.504569264676313E-03
  -1.523494373826391E-03  -1.542657529923280E-03  -1.562061727167006E-03
  -1.581709997417624E-03  -1.601605410668834E-03  -1.621751075527557E-03
  -1.642150139699516E-03  -1.662805790480957E-03  -1.683721255256514E-03
  -1.704899802003361E-03  -1.726344739801690E-03  -1.748059419351589E-03
  -1.770047233496460E-03  -1.792311617752970E-03  -1.814856050847688E-03
  -1.837684055260471E-03  -1.860799197774651E-03  -1.884205090034181E-03
  -1.907905389107738E-03  -1.931903798059950E-03  -1.956204066529787E-03
  -1.980809991316214E-03  -2.005725416971228E-03  -2.030954236400320E-03
  -2.056500391470497E-03  -2.082367873625958E-03  -2.108560724511464E-03
  -2.135083036603600E-03  -2.161938953849915E-03  -2.189132672316125E-03
  -2.216668440841444E-03  -2.244550561702128E-03  -2.272783391283392E-03
  -2.301371340759734E-03  -2.330318876783822E-03  -2.359630522184047E-03
  -2.389310856670802E-03  -2.419364517551684E-03  -2.449796200455638E-03
  -2.480610660066214E-03  -2.511812710864046E-03  -2.543407227878619E-03
  -2.575399147449536E-03  -2.607793467997288E-03  -2.640595250803738E-03
  -2.673809620802413E-03  -2.707441767378672E-03  -2.741496945179998E-03
  -2.775980474936393E-03  -2.810897744291114E-03  -2.846254208641842E-03
  -2.882055391992371E-03  -2.918306887815059E-03  -2.955014359924034E-03
  -2.992183543359404E-03  -3.029820245282575E-03  -3.067930345882749E-03
  -3.106519799294891E-03  -3.145594634529127E-03  -3.185160956411857E-03
  -3.225224946538688E-03  -3.265792864239263E-03  -3.306871047554283E-03
  -3.348465914224713E-03  -3.390583962693442E-03  -3.433231773119502E-03
  -3.476416008404979E-03  -3.520143415234873E-03  -3.564420825129925E-03
  -3.609255155512700E-03  -3.654653410787023E-03  -3.700622683430947E-03
  -3.747170155103440E-03  -3.794303097764931E-03  -3.842028874811917E-03
  -3.890354942225796E-03  -3.939288849736085E-03  -3.988838241998242E-03
  -4.039010859786222E-03  -4.089814541200000E-03  -4.141257222888221E-03
  -4.193346941286154E-03  -4.246091833869185E-03  -4.299500140421977E-03
  -4.353580204323551E-03  -4.408340473848472E-03  -4.463789503484283E-03
  -4.519935955265495E-03  -4.576788600124235E-03  -4.634356319257816E-03
  -4.692648105513441E-03  -4.751673064790206E-03  -4.811440417458678E-03
  -4.871959499798214E-03  -4.933239765452273E-03  -4.995290786901935E-03
  -5.058122256957830E-03  -5.121743990270759E-03  -5.186165924861168E-03
  -5.251398123667758E-03  -5.317450776115463E-03  -5.384334199703003E-03
  -5.452058841610294E-03  -5.520635280325922E-03  -5.590074227294959E-03
  -5.660386528587369E-03  -5.731583166587209E-03  -5.803675261702968E-03
  -5.876674074099218E-03  -5.950591005449894E-03  -6.025437600713450E-03
  -6.101225549930135E-03  -6.177966690041742E-03  -6.255673006733968E-03
  -6.334356636301812E-03  -6.414029867538201E-03  -6.494705143646114E-03
  -6.576395064174601E-03  -6.659112386978834E-03  -6.742870030204616E-03
  -6.827681074297596E-03  -6.913558764037441E-03  -7.000516510597383E-03
  -7.088567893629319E-03  -7.177726663374885E-03  -7.268006742802761E-03
  -7.359422229772516E-03  -7.451987399225369E-03  -7.545716705402129E-03
  -7.640624784088685E-03  -7.736726454889381E-03  -7.834036723528547E-03
  -7.932570784180654E-03  -8.032344021829268E-03  -8.133372014655315E-03
  -8.235670536454897E-03  -8.339255559087050E-03  -8.444143254951823E-03
  -8.550349999499005E-03  -8.657892373767871E-03  -8.766787166958378E-03
  -8.877051379034051E-03  -8.988702223357129E-03  -9.101757129356132E-03
  -9.216233745226433E-03  -9.332149940664116E-03  -9.449523809633513E-03
  -9.568373673168869E-03  -9.688718082210522E-03  -9.810575820475932E-03
  -9.933965907366111E-03  -1.005890760090775E-02  -1.018542040073145E-02
  -1.031352405108661E-02  -1.044323854389325E-02  -1.057458412183132E-02
  -1.070758128146782E-02  -1.084225077642222E-02  -1.097861362057068E-02
  -1.111669109128942E-02  -1.125650473273773E-02  -1.139807635918111E-02
  -1.154142805835487E-02  -1.168658219486892E-02  -1.183356141365383E-02
  -1.198238864344901E-02  -1.213308710033330E-02  -1.228568029129831E-02
  -1.244019201786538E-02  -1.259664637974621E-02  -1.275506777854801E-02
  -1.291548092152344E-02  -1.307791082536588E-02  -1.324238282005057E-02
  -1.340892255272221E-02  -1.357755599162926E-02  -1.374830943010582E-02
  -1.392120949060119E-02  -1.409628312875807E-02  -1.427355763753950E-02
  -1.445306065140544E-02  -1.463482015053925E-02  -1.481886446512467E-02
  -1.500522227967392E-02  -1.519392263740743E-02  -1.538499494468561E-02
  -1.557846897549342E-02  -1.577437487597802E-02  -1.597274316904037E-02
  -1.617360475898103E-02  -1.637699093620087E-02  -1.658293338195731E-02
  -1.679146417317636E-02  -1.700261578732141E-02  -1.721642110731896E-02
  -1.743291342654215E-02  -1.765212645385251E-02  -1.787409431870035E-02
  -1.809885157628468E-02  -1.832643321277300E-02  -1.855687465058152E-02
  -1.879021175371654E-02  -1.902648083317727E-02  -1.926571865242097E-02
  -1.950796243289079E-02  -1.975324985960680E-02  -2.000161908682109E-02
  -2.025310874373700E-02  -2.050775794029353E-02  -2.076560627301514E-02
  -2.102669383092767E-02  -2.129106120154082E-02  -2.155874947689787E-02
  -2.182980025969283E-02  -2.210425566945612E-02  -2.238215834880875E-02
  -2.266355146978584E-02  -2.294847874022992E-02  -2.323698441025440E-02
  -2.352911327877787E-02  -2.382491070012971E-02  -2.412442259072727E-02
  -2.442769543582545E-02  -2.473477629633875E-02  -2.504571281573651E-02
  -2.536055322701169E-02  -2.567934635972361E-02  -2.600214164711511E-02
  -2.632898913330429E-02  -2.665993948055159E-02  -2.699504397660231E-02
  -2.733435454210489E-02  -2.767792373810558E-02  -2.802580477361920E-02
  -2.837805151327710E-02  -2.873471848505183E-02  -2.909586088805915E-02
  -2.946153460043765E-02  -2.983179618730572E-02  -3.020670290879666E-02
  -3.058631272817152E-02  -3.097068432001009E-02  -3.135987707848002E-02
  -3.175395112568397E-02  -3.215296732008496E-02  -3.255698726500995E-02
  -3.296607331723121E-02  -3.338028859562585E-02  -3.379969698991289E-02
  -3.422436316946795E-02  -3.465435259221521E-02  -3.508973151359631E-02
  -3.553056699561606E-02  -3.597692691596392E-02  -3.642887997721161E-02
  -3.688649571608577E-02  -3.734984451281512E-02  -3.781899760055182E-02
  -3.829402707486572E-02  -3.877500590331120E-02  -3.926200793506555E-02
  -3.975510791063783E-02  -4.025438147164746E-02  -4.075990517067091E-02
  -4.127175648115579E-02  -4.179001380740090E-02  -4.231475649460062E-02
  -4.284606483895233E-02  -4.338402009782515E-02  -4.392870449998838E-02
  -4.448020125589777E-02  -4.503859456803741E-02  -4.560396964131581E-02
  -4.617641269351284E-02  -4.675601096577644E-02  -4.734285273316573E-02
  -4.793702731523800E-02  -4.853862508667737E-02  -4.914773748796101E-02
  -4.976445703606101E-02  -5.038887733517782E-02  -5.102109308750196E-02
  -5.166120010400053E-02  -5.230929531522400E-02  -5.296547678213009E-02
  -5.362984370691977E-02  -5.430249644388089E-02  -5.498353651023530E-02
  -5.567306659698328E-02  -5.637119057974133E-02  -5.707801352956696E-02
  -5.779364172376480E-02  -5.851818265666834E-02  -5.925174505039028E-02
  -5.999443886553549E-02  -6.074637531186912E-02  -6.150766685893257E-02
  -6.227842724660011E-02  -6.305877149556706E-02  -6.384881591776248E-02
  -6.464867812667641E-02  -6.545847704759311E-02  -6.627833292772056E-02
  -6.710836734620571E-02  -6.794870322402570E-02  -6.879946483374363E-02
  -6.966077780911728E-02  -7.053276915454934E-02  -7.141556725436586E-02
  -7.230930188191056E-02  -7.321410420844122E-02  -7.413010681181344E-02
  -7.505744368493794E-02  -7.599625024399459E-02  -7.694666333638837E-02
  -7.790882124842953E-02  -7.888286371272084E-02  -7.986893191523399E-02
  -8.086716850205482E-02  -8.187771758577925E-02  -8.290072475153812E-02
  -8.393633706262968E-02  -8.498470306573797E-02  -8.604597279571230E-02
  -8.712029777988523E-02  -8.820783104190290E-02  -8.930872710504126E-02
  -9.042314199498175E-02  -9.155123324201639E-02  -9.269315988265472E-02
  -9.384908246059993E-02  -9.501916302706326E-02  -9.620356514038325E-02
  -9.740245386491431E-02  -9.861599576914998E-02  -9.984435892304254E-02
  -1.010877128944802E-01  -1.023462287448822E-01  -1.036200790238676E-01
  -1.049094377629582E-01  -1.062144804682653E-01  -1.075353841121175E-01
  -1.088723271235783E-01  -1.102254893778030E-01  -1.115950521841827E-01
  -1.129811982732206E-01  -1.143841117820838E-01  -1.158039782387710E-01
  -1.172409845448357E-01  -1.186953189566011E-01  -1.201671710648004E-01
  -1.216567317725752E-01  -1.231641932717600E-01  -1.246897490173792E-01
  -1.262335937002819E-01  -1.277959232178335E-01  -1.293769346425827E-01
  -1.309768261888199E-01  -1.325957971769373E-01  -1.342340479955003E-01
  -1.358917800609356E-01  -1.375691957747372E-01  -1.392664984780903E-01
  -1.409838924038043E-01  -1.427215826254515E-01  -1.444797750035930E-01
  -1.462586761289779E-01  -1.480584932625952E-01  -1.498794342724506E-01
  -1.517217075669407E-01  -1.535855220246903E-01  -1.554710869207123E-01
  -1.573786118487490E-01  -1.593083066396430E-01  -1.612603812755881E-01
  -1.632350458000977E-01  -1.652325102235283E-01  -1.672529844239886E-01
  -1.692966780434565E-01  -1.713638003789257E-01  -1.734545602683926E-01
  -1.755691659714906E-01  -1.777078250445720E-01  -1.798707442100308E-01
  -1.820581292196543E-01  -1.842701847117836E-01  -1.865071140620545E-01
  -1.887691192274890E-01  -1.910564005836900E-01  -1.933691567548970E-01
  -1.957075844366420E-01  -1.980718782107426E-01  -2.004622303523619E-01
  -2.028788306288501E-01  -2.053218660900858E-01  -2.077915208500137E-01
  -2.102879758590760E-01  -2.128114086672238E-01  -2.153619931771806E-01
  -2.179398993876311E-01  -2.205452931259889E-01  -2.231783357703941E-01
  -2.258391839605812E-01  -2.285279892972427E-01  -2.312448980295150E-01
  -2.339900507301930E-01  -2.367635819582735E-01  -2.395656199084238E-01
  -2.423962860469475E-01  -2.452556947338287E-01  -2.481439528304082E-01
  -2.510611592922475E-01  -2.540074047467203E-01  -2.569827710548635E-01
  -2.599873308570114E-01  -2.630211471017246E-01  -2.660842725575175E-01
  -2.691767493068803E-01  -2.722986082220779E-01  -2.754498684222068E-01
  -2.786305367109770E-01  -2.818406069946801E-01  -2.850800596797981E-01
  -2.883488610497007E-01  -2.916469626198694E-01  -2.949743004710887E-01
  -2.983307945600298E-01  -3.017163480066568E-01  -3.051308463578771E-01
  -3.085741568268585E-01  -3.120461275074309E-01  -3.155465865629968E-01
  -3.190753413893679E-01  -3.226321777509530E-01  -3.262168588897294E-01
  -3.298291246064273E-01  -3.334686903133723E-01  -3.371352460584394E-01
  -3.408284555195761E-01  -3.445479549693815E-01  -3.482933522092281E-01
  -3.520642254724436E-01  -3.558601222960890E-01  -3.596805583608894E-01
  -3.635250162989124E-01  -3.673929444686110E-01  -3.712837556968890E-01
  -3.751968259878852E-01  -3.791314931982163E-01  -3.830870556784680E-01
  -3.870627708807757E-01  -3.910578539323960E-01  -3.950714761752358E-01
  -3.991027636713700E-01  -4.031507956746639E-01  -4.072146030686919E-01
  -4.112931667712389E-01  -4.153854161057646E-01  -4.194902271403184E-01
  -4.236064209945065E-01  -4.277327621152345E-01  -4.318679565220791E-01
  -4.360106500232883E-01  -4.401594264035530E-01  -4.443128055848674E-01
  -4.484692417619578E-01  -4.526271215139512E-01  -4.567847618941553E-01
  -4.609404085000223E-01  -4.650922335256127E-01  -4.692383337990911E-01
  -4.733767288080570E-01  -4.775053587157830E-01  -4.816220823717009E-01
  -4.857246753198037E-01  -4.898108278089267E-01  -4.938781428092242E-01
  -4.979241340395117E-01  -5.019462240105051E-01  -5.059417420894053E-01
  -5.099079225916668E-01  -5.138419029062380E-01  -5.177407216610209E-01
  -5.216013169357490E-01  -5.254205245300189E-01  -5.291950762946934E-01
  -5.329215985354585E-01  -5.365966104978828E-01  -5.402165229438889E-01
  -5.437776368301890E-01  -5.472761420998322E-01  -5.507081165986851E-01
  -5.540695251293285E-01  -5.573562186555342E-01  -5.605639336712127E-01
  -5.636882917484292E-01  -5.667247992798314E-01  -5.696688474315967E-01
  -5.725157123237501E-01  -5.752605554555009E-01  -5.778984243940097E-01
  -5.804242537457844E-01  -5.828328664306938E-01  -5.851189752793463E-01
  -5.872771849753647E-01  -5.893019943648262E-01  -5.911877991558699E-01
  -5.929288950321780E-01  -5.945194812046956E-01  -5.959536644265855E-01
  -5.972254634969756E-01  -5.983288142795706E-01  -5.992575752626407E-01
  -6.000055336872402E-01  -6.005664122707832E-01  -6.009338765532364E-01
  -6.011015428932270E-01  -6.010629871412392E-01  -6.008117540168103E-01
  -6.003413672161902E-01  -5.996453402762920E-01  -5.987171882199190E-01
  -5.975504400061632E-01  -5.961386518085423E-01  -5.944754211418128E-01
  -5.925544018564907E-01  -5.903693200178396E-01  -5.879139906834929E-01
  -5.851823355908762E-01  -5.821684017621790E-01  -5.788663810307930E-01
  -5.752706304887952E-01  -5.713756938502296E-01  -5.671763237196009E-01
  -5.626675047490483E-01  -5.578444776611841E-01  -5.527027641074411E-01
  -5.472381923239940E-01  -5.414469235389087E-01  -5.353254790750035E-01
  -5.288707680831084E-01  -5.220801158298225E-01  -5.149512924525838E-01
  -5.074825420828647E-01  -4.996726122255101E-01  -4.915207832688117E-01
  -4.830268979857189E-01  -4.741913908717367E-01  -4.650153171496746E-01
  -4.555003812553068E-01  -4.456489646015852E-01  -4.354641524020952E-01
  -4.249497593172534E-01  -4.141103536694421E-01  -4.029512799558498E-01
  -3.914786793706711E-01  -3.796995080314783E-01  -3.676215525883718E-01
  -3.552534428792659E-01  -3.426046612804481E-01  -3.296855483890193E-01
  -3.165073046630413E-01  -3.030819876367887E-01  -2.894225043228854E-01
  -2.755425984105886E-01  -2.614568318709312E-01  -2.471805605850723E-01
  -2.327299036229102E-01  -2.181217058153654E-01  -2.033734932862996E-01
  -1.885034216398050E-01  -1.735302165360219E-01  -1.584731064346809E-01
  -1.433517473410448E-01  -1.281861394543362E-01  -1.129965356953052E-01
  -9.780334217761097E-02  -8.262701078814133E-02  -6.748792415492767E-02
  -5.240627340818040E-02  -3.740192928105257E-02  -2.249430725189029E-02
  -7.702227599321543E-03   6.956228574559381E-03   2.146386610005820E-02
   3.580452381092419E-02   4.996322224374047E-02   6.392630904506699E-02
   7.768159992316186E-02   9.121851273234531E-02   1.045281920257764E-01
   1.176036211606498E-01   1.304397187927067E-01   1.430334163596307E-01
   1.553837129315514E-01   1.674917036079262E-01   1.793605774716602E-01
   1.909955809816720E-01   2.024039426041202E-01   2.135947544604783E-01
   2.245788068189198E-01   2.353683713864790E-01   2.459769295857576E-01
   2.564188423353580E-01   2.667089583114253E-01   2.768621582626818E-01
   2.868928336972009E-01   2.968142991689011E-01   3.066381384780106E-01
   3.163734863732303E-01   3.260262488127829E-01   3.355982665131212E-01
   3.450864283899453E-01   3.544830633709207E-01   3.637814311089157E-01
   3.729755881347577E-01   3.820596450561792E-01   3.910277696917202E-01
   3.998741899326071E-01   4.085931963492631E-01   4.171791445662626E-01
   4.256264574365941E-01   4.339296270527685E-01   4.420832166383538E-01
   4.500818623686128E-01   4.579202751728517E-01   4.655932425735994E-01
   4.730956306186834E-01   4.804223859615329E-01   4.875685381426121E-01
   4.945292021208175E-01   5.012995810981090E-01   5.078749696737939E-01
   5.142507573570109E-01   5.204224324573887E-01   5.263855863648844E-01
   5.321359182207924E-01   5.376692399731385E-01   5.429814818014084E-01
   5.480686978880195E-01   5.529270725072970E-01   5.575529263970821E-01
   5.619427233735002E-01   5.660930771458939E-01   5.700007582864121E-01
   5.736627013071990E-01   5.770760117974485E-01   5.802379735726688E-01
   5.831460557892418E-01   5.857979199786509E-01   5.881914269574692E-01
   5.903246435712719E-01   5.921958492329573E-01   5.938035422184621E-01
   5.951464456854709E-01   5.962235133833901E-01   5.970339350255468E-01
   5.975771412972316E-01   5.978528084758271E-01   5.978608626417991E-01
   5.976014834617929E-01   5.970751075274342E-01   5.962824312356862E-01
   5.952244131987635E-01   5.939022761736286E-01   5.923175085030196E-01
   5.904718650617542E-01   5.883673677037471E-01   5.860063052067569E-01
   5.833912327133465E-01   5.805249706679034E-01   5.774106032508313E-01
   5.740514763121848E-01   5.704511948080879E-01   5.666136197442571E-01
   5.625428646318460E-01   5.582432914616430E-01   5.537195062033987E-01
   5.489763538377368E-01   5.440189129287208E-01   5.388524897457128E-01
   5.334826119436840E-01   5.279150218116206E-01   5.221556690991225E-01
   5.162107034317281E-01   5.100864663259269E-01   5.037894828152296E-01
   4.973264526991038E-01   4.907042414270097E-01   4.839298706302324E-01
   4.770105083146913E-01   4.699534587284275E-01   4.627661519180281E-01
   4.554561329888526E-01   4.480310510845836E-01   4.404986481023286E-01
   4.328667471602657E-01   4.251432408287333E-01   4.173360791797882E-01
   4.094532575987251E-01   4.015028044576274E-01   3.934927686312057E-01
   3.854312068862049E-01   3.773261711681659E-01   3.691856958104520E-01
   3.610177846915869E-01   3.528303983680889E-01   3.446314412111104E-01
   3.364287485763004E-01   3.282300740373656E-01   3.200430767148171E-01
   3.118753087323287E-01   3.037342028339841E-01   2.956270601964350E-01
   2.875610384706262E-01   2.795431400882274E-01   2.715802008682592E-01
   2.636788789595642E-01   2.558456441547752E-01   2.480867676112226E-01
   2.404083120138198E-01   2.328161222143433E-01   2.253158163806809E-01
   2.179127776885488E-01   2.106121465868751E-01   2.034188136665150E-01
   1.963374131601922E-01   1.893723170995710E-01   1.825276301531462E-01
   1.758071851662148E-01   1.692145394215633E-01   1.627529716366939E-01
   1.564254797104274E-01   1.502347792285884E-01   1.441833027352088E-01
   1.382731997723158E-01   1.325063376879065E-01   1.268843032081978E-01
   1.214084047666875E-01   1.160796755790084E-01   1.108988774490232E-01
   1.058665052881291E-01   1.009827923263364E-01   9.624771599039010E-02
   9.166100442104104E-02   8.722214359856932E-02   8.293038504284184E-02
   7.878475405157152E-02   7.478405843805823E-02   7.092689772754909E-02
   6.721167276947569E-02   6.363659572122078E-02   6.019970035775039E-02
   5.689885266042441E-02   5.373176163757916E-02   5.069599032905788E-02
   4.778896694675489E-02   4.500799610342328E-02   4.235027008249725E-02
   3.981288010242280E-02   3.739282753007377E-02   3.508703499913528E-02
   3.289235739089191E-02   3.080559263666273E-02   2.882349230313705E-02
   2.694277192406754E-02   2.516012104415460E-02   2.347221294348105E-02
   2.187571401350932E-02   2.036729275840822E-02   1.894362839831033E-02
   1.760141905399046E-02   1.633738949537634E-02   1.514829843923195E-02
   1.403094538426987E-02   1.298217697482964E-02   1.199889288708447E-02
   1.107805123449022E-02   1.021667349184989E-02   9.411848939918591E-03
   8.660738634903719E-03   7.960578909509176E-03   7.308684414321432E-03
   6.702450710328260E-03   6.139356425191637E-03   5.616964987558390E-03
   5.132925955181698E-03   4.684975953941233E-03   4.270939245988770E-03
   3.888727946210078E-03   3.536341906985280E-03   3.211868291851724E-03
   2.913480859130817E-03   2.639438976878617E-03   2.388086390666244E-03
   2.157849765697765E-03   1.947237024638379E-03   1.754835502263368E-03
   1.579309937657574E-03   1.419400324205734E-03   1.273919637025505E-03
   1.141751456819257E-03   1.021847508343936E-03   9.132251310099128E-04
   8.149646977265760E-04   7.262069971545503E-04   6.461506556940052E-04
   5.740488404772519E-04   5.092110044635303E-04   4.509842040354844E-04
   3.987861486873535E-04   3.520806499585948E-04   3.103585948242425E-04
   2.731469555571120E-04   2.400110584438138E-04   2.105521420213384E-04
   1.844050087059309E-04   1.612357715940266E-04   1.407396977483404E-04
   1.226391488098418E-04   1.066816191078065E-04   9.263787110497899E-05
   8.030016752863234E-05   6.948059907213698E-05   6.000950620048287E-05
   5.173399324757840E-05   4.451653267637719E-05   3.823365709554898E-05
   3.277473638405033E-05   2.804083706696673E-05   2.394366091154528E-05
   2.040455957033687E-05   1.735362198752900E-05   1.472883120340028E-05
   1.247528713873152E-05   1.054449191419916E-05   8.893694257380546E-06
   7.485289570063776E-06   6.286272269065983E-06   5.267737072684234E-06
   4.404425980182928E-06   3.674317781328103E-06   3.058257034913347E-06
   2.539619567538871E-06   2.104011664729590E-06   1.739000254019406E-06
   1.433871512193780E-06   1.179415464885352E-06   9.677342846876388E-07
   7.920721325411711E-07   6.466645251322552E-07   5.266053473323190E-07
   4.277297623290131E-07   3.465114022196440E-07   2.799723477376786E-07
   2.256045268685419E-07   1.813012779006440E-07   1.452979325785718E-07
   1.161203792055337E-07   9.254066360242249E-08   7.353877767700668E-08
   5.826987097078183E-08   4.603619998248696E-08   3.626320342471820E-08
   2.847915901233411E-08   2.229793910944898E-08   1.740443881091744E-08
   1.354230106611912E-08   1.050360954880756E-08   8.120261431191697E-09
   6.256769332690317E-09   4.804274792814404E-09   3.675584922444565E-09
   2.801069897229099E-09   2.125280949027919E-09   1.604171983771630E-09
   1.202806398105059E-09   8.935290635387980E-10   6.542711247051457E-10
   4.686792811400989E-10   3.172421073535865E-10   0.000000000000000E+00
   0.000000000000000E+00   0.000000000000000E+00   0.000000000000000E+00
   0.000000000000000E+00   0.000000000000000E+00   0.000000000000000E+00
   0.000000000000000E+00   0.000000000000000E+00   0.000000000000000E+00
   0.000000000000000E+00   0.000000000000000E+00   0.000000000000000E+00
   0.000000000000000E+00   0.000000000000000E+00   0.000000000000000E+00
   0.000000000000000E+00   0.000000000000000E+00   0.000000000000000E+00
   0.000000000000000E+00   0.000000000000000E+00   0.000000000000000E+00
   0.000000000000000E+00   0.000000000000000E+00   0.000000000000000E+00
   0.000000000000000E+00   0.000000000000000E+00   0.000000000000000E+00
   0.000000000000000E+00   0.000000000000000E+00   0.000000000000000E+00
   0.000000000000000E+00   0.000000000000000E+00   0.000000000000000E+00
   0.000000000000000E+00   0.000000000000000E+00   0.000000000000000E+00
   0.000000000000000E+00   0.000000000000000E+00   0.000000000000000E+00
   0.000000000000000E+00   0.000000000000000E+00   0.000000000000000E+00
   0.000000000000000E+00   0.000000000000000E+00   0.000000000000000E+00
   0.000000000000000E+00   0.000000000000000E+00   0.000000000000000E+00
   0.000000000000000E+00   0.000000000000000E+00   0.000000000000000E+00
   0.000000000000000E+00   0.000000000000000E+00   0.000000000000000E+00
   0.000000000000000E+00   0.000000000000000E+00   0.000000000000000E+00
   0.000000000000000E+00   0.000000000000000E+00   0.000000000000000E+00
   0.000000000000000E+00   0.000000000000000E+00   0.000000000000000E+00
   0.000000000000000E+00   0.000000000000000E+00   0.000000000000000E+00
   0.000000000000000E+00   0.000000000000000E+00   0.000000000000000E+00
   0.000000000000000E+00   0.000000000000000E+00   0.000000000000000E+00
   0.000000000000000E+00
    </PP_PSWFC.2>
    <PP_PSWFC.3 size="1129" index="3" label="2P" l="1">
   1.965973724604876E-08   2.015742585933077E-08   2.066771351960682E-08
   2.119091917325798E-08   2.172736984083087E-08   2.227740082143596E-08
   2.284135590232037E-08   2.341958757374623E-08   2.401245724930821E-08
   2.462033549182912E-08   2.524360224497329E-08   2.588264707072389E-08
   2.653786939287168E-08   2.720967874666785E-08   2.789849503479698E-08
   2.860474878982943E-08   2.932888144331845E-08   3.007134560170908E-08
   3.083260532923172E-08   3.161313643795762E-08   3.241342678519639E-08
   3.323397657842280E-08   3.407529868792268E-08   3.493791896735329E-08
   3.582237658241906E-08   3.672922434786730E-08   3.765902907301549E-08
   3.861237191602533E-08   3.958984874714531E-08   4.059207052114912E-08
   4.161966365920172E-08   4.267327044039307E-08   4.375354940318317E-08
   4.486117575700979E-08   4.599684180431647E-08   4.716125737326345E-08
   4.835515026139334E-08   4.957926669052811E-08   5.083437177318157E-08
   5.212124999077980E-08   5.344070568398669E-08   5.479356355544317E-08
   5.618066918523274E-08   5.760288955939623E-08   5.906111361182638E-08
   6.055625277987937E-08   6.208924157405302E-08   6.366103816208564E-08
   6.527262496784182E-08   6.692500928535897E-08   6.861922390843810E-08
   7.035632777617331E-08   7.213740663482284E-08   7.396357371643484E-08
   7.583597043465391E-08   7.775576709814036E-08   7.972416364205107E-08
   8.174239037803727E-08   8.381170876322855E-08   8.593341218868473E-08
   8.810882678780543E-08   9.033931226520671E-08   9.262626274657953E-08
   9.497110765006287E-08   9.737531257967621E-08   9.984038024136794E-08
   1.023678513822551E-07   1.049593057536393E-07   1.076163630984015E-07
   1.103406841633932E-07   1.131339717374557E-07   1.159979717157176E-07
   1.189344741908343E-07   1.219453145718532E-07   1.250323747314031E-07
   1.281975841819228E-07   1.314429212816689E-07   1.347704144712518E-07
   1.381821435414756E-07   1.416802409332732E-07   1.452668930705488E-07
   1.489443417267624E-07   1.527148854261086E-07   1.565808808801672E-07
   1.605447444609223E-07   1.646089537110698E-07   1.687760488925608E-07
   1.730486345743447E-07   1.774293812603060E-07   1.819210270584149E-07
   1.865263793921283E-07   1.912483167551185E-07   1.960897905104224E-07
   2.010538267351339E-07   2.061435281117994E-07   2.113620758676879E-07
   2.167127317631596E-07   2.221988401303663E-07   2.278238299635631E-07
   2.335912170623385E-07   2.395046062290939E-07   2.455676935221603E-07
   2.517842685659479E-07   2.581582169195776E-07   2.646935225054780E-07
   2.713942700994558E-07   2.782646478838097E-07   2.853089500650704E-07
   2.925315795580132E-07   2.999370507376148E-07   3.075299922606737E-07
   3.153151499588634E-07   3.232973898050215E-07   3.314817009545303E-07
   3.398731988636926E-07   3.484771284870436E-07   3.572988675556079E-07
   3.663439299381443E-07   3.756179690874781E-07   3.851267815740824E-07
   3.948763107091047E-07   4.048726502591169E-07   4.151220482549004E-07
   4.256309108966516E-07   4.364058065580498E-07   4.474534698916819E-07
   4.587808060384024E-07   4.703948949432485E-07   4.823029957806156E-07
   4.945125514914557E-07   5.070311934353293E-07   5.198667461602321E-07
   5.330272322931632E-07   5.465208775544993E-07   5.603561158993132E-07
   5.745415947888314E-07   5.890861805953508E-07   6.039989641439752E-07
   6.192892663946380E-07   6.349666442679737E-07   6.510408966186565E-07
   6.675220703599657E-07   6.844204667433894E-07   7.017466477971934E-07
   7.195114429279883E-07   7.377259556894028E-07   7.564015707221172E-07
   7.755499608695769E-07   7.951830944738367E-07   8.153132428561084E-07
   8.359529879866609E-07   8.571152303488986E-07   8.788131970025069E-07
   9.010604498507185E-07   9.238708941168704E-07   9.472587870355250E-07
   9.712387467636238E-07   9.958257615172187E-07   1.021035198939489E-06
   1.046882815705929E-06   1.073384767372656E-06   1.100557618474060E-06
   1.128418352876047E-06   1.156984384391384E-06   1.186273567663776E-06
   1.216304209327435E-06   1.247095079449205E-06   1.278665423260290E-06
   1.311034973184991E-06   1.344223961173956E-06   1.378253131349603E-06
   1.413143752971712E-06   1.448917633731184E-06   1.485597133380359E-06
   1.523205177708376E-06   1.561765272870282E-06   1.601301520078939E-06
   1.641838630668780E-06   1.683401941540943E-06   1.726017430999386E-06
   1.769711734987848E-06   1.814512163737911E-06   1.860446718838418E-06
   1.907544110737056E-06   1.955833776684963E-06   2.005345899135555E-06
   2.056111424609190E-06   2.108162083035294E-06   2.161530407584170E-06
   2.216249755000842E-06   2.272354326453571E-06   2.329879188910249E-06
   2.388860297055805E-06   2.449334515764506E-06   2.511339643141122E-06
   2.574914434145306E-06   2.640098624814097E-06   2.706932957097501E-06
   2.775459204322825E-06   2.845720197303627E-06   2.917759851109496E-06
   2.991623192513641E-06   3.067356388135132E-06   3.145006773293632E-06
   3.224622881594553E-06   3.306254475263040E-06   3.389952576245980E-06
   3.475769498101175E-06   3.563758878693836E-06   3.653975713720764E-06
   3.746476391083055E-06   3.841318726129066E-06   3.938561997789353E-06
   4.038266985626420E-06   4.140496007822332E-06   4.245312960127822E-06
   4.352783355797537E-06   4.462974366535973E-06   4.575954864480053E-06
   4.691795465244381E-06   4.810568572056043E-06   4.932348421006794E-06
   5.057211127450512E-06   5.185234733575277E-06   5.316499257179646E-06
   5.451086741683461E-06   5.589081307404848E-06   5.730569204134945E-06
   5.875638865043595E-06   6.024380961949583E-06   6.176888461989747E-06
   6.333256685722819E-06   6.493583366703789E-06   6.657968712566391E-06
   6.826515467651804E-06   6.999328977222433E-06   7.176517253301435E-06
   7.358191042178502E-06   7.544463893624571E-06   7.735452231858516E-06
   7.931275428309985E-06   8.132055876224393E-06   8.337919067155922E-06
   8.548993669397029E-06   8.765411608393042E-06   8.987308149192189E-06
   9.214821980982700E-06   9.448095303769550E-06   9.687273917245264E-06
   9.932507311910182E-06   1.018394876249901E-05   1.044175542377232E-05
   1.070608842873245E-05   1.097711298932556E-05   1.125499849969251E-05
   1.153991864203307E-05   1.183205149514981E-05   1.213157964573915E-05
   1.243869030249943E-05   1.275357541312707E-05   1.307643178427393E-05
   1.340746120454095E-05   1.374687057058468E-05   1.409487201641566E-05
   1.445168304596943E-05   1.481752666903270E-05   1.519263154061002E-05
   1.557723210381761E-05   1.597156873639386E-05   1.637588790091795E-05
   1.679044229883021E-05   1.721549102835094E-05   1.765129974639561E-05
   1.809814083458823E-05   1.855629356947619E-05   1.902604429705296E-05
   1.950768661169774E-05   2.000152153964366E-05   2.050785772708923E-05
   2.102701163307060E-05   2.155930772721463E-05   2.210507869249706E-05
   2.266466563313144E-05   2.323841828771944E-05   2.382669524779526E-05
   2.442986418190048E-05   2.504830206532981E-05   2.568239541569036E-05
   2.633254053442231E-05   2.699914375443147E-05   2.768262169398787E-05
   2.838340151704994E-05   2.910192120017564E-05   2.983862980618799E-05
   3.059398776476563E-05   3.136846716013324E-05   3.216255202603192E-05
   3.297673864815319E-05   3.381153587422574E-05   3.466746543194829E-05
   3.554506225496695E-05   3.644487481710075E-05   3.736746547502357E-05
   3.831341081961677E-05   3.928330203621149E-05   4.027774527394529E-05
   4.129736202446418E-05   4.234278951020544E-05   4.341468108250456E-05
   4.451370662977377E-05   4.564055299600721E-05   4.679592440987410E-05
   4.798054292466682E-05   4.919514886937912E-05   5.044050131119570E-05
   5.171737852968074E-05   5.302657850296281E-05   5.436891940621740E-05
   5.574524012275969E-05   5.715640076806537E-05   5.860328322704609E-05
   6.008679170491515E-05   6.160785329198681E-05   6.316741854276060E-05
   6.476646206965257E-05   6.640598315174361E-05   6.808700635892260E-05
   6.981058219181608E-05   7.157778773790100E-05   7.338972734421053E-05
   7.524753330705265E-05   7.715236657916851E-05   7.910541749477547E-05
   8.110790651294288E-05   8.316108497976514E-05   8.526623590980750E-05
   8.742467478730876E-05   8.963775038764357E-05   9.190684561955216E-05
   9.423337838866477E-05   9.661880248285714E-05   9.906460847998718E-05
   1.015723246785806E-04   1.041435180520421E-04   1.067797952269879E-04
   1.094828034863075E-04   1.122542317975773E-04   1.150958118674704E-04
   1.180093192228125E-04   1.209965743189616E-04   1.240594436761981E-04
   1.271998410448312E-04   1.304197285997485E-04   1.337211181651501E-04
   1.371060724702280E-04   1.405767064365721E-04   1.441351884981024E-04
   1.477837419543468E-04   1.515246463579075E-04   1.553602389369744E-04
   1.592929160537729E-04   1.633251346998464E-04   1.674594140291080E-04
   1.716983369296082E-04   1.760445516349959E-04   1.805007733766738E-04
   1.850697860776688E-04   1.897544440892747E-04   1.945576739715371E-04
   1.994824763186908E-04   2.045319276306766E-04   2.097091822318982E-04
   2.150174742384113E-04   2.204601195747594E-04   2.260405180417075E-04
   2.317621554361559E-04   2.376286057245394E-04   2.436435332710670E-04
   2.498106951221731E-04   2.561339433485961E-04   2.626172274465340E-04
   2.692645967993575E-04   2.760802032014071E-04   2.830683034454310E-04
   2.902332619752616E-04   2.975795536053687E-04   3.051117663089744E-04
   3.128346040764363E-04   3.207528898456794E-04   3.288715685064718E-04
   3.371957099804018E-04   3.457305123784548E-04   3.544813052381142E-04
   3.634535528421230E-04   3.726528576204584E-04   3.820849636385434E-04
   3.917557601729127E-04   4.016712853767607E-04   4.118377300381791E-04
   4.222614414326694E-04   4.329489272727391E-04   4.439068597568096E-04
   4.551420797198813E-04   4.666616008888800E-04   4.784726142447735E-04
   4.905824924944462E-04   5.029987946548883E-04   5.157292707528391E-04
   5.287818666423829E-04   5.421647289435428E-04   5.558862101049747E-04
   5.699548735940308E-04   5.843794992167583E-04   5.991690885716119E-04
   6.143328706404471E-04   6.298803075190569E-04   6.458211002920950E-04
   6.621651950553037E-04   6.789227890882962E-04   6.961043371826897E-04
   7.137205581285765E-04   7.317824413632883E-04   7.503012537874766E-04
   7.692885467508299E-04   7.887561632137947E-04   8.087162450878716E-04
   8.291812407595874E-04   8.501639128033186E-04   8.716773458862401E-04
   8.937349548713948E-04   9.163504931231417E-04   9.395380610200757E-04
   9.633121146806681E-04   9.876874749066074E-04   1.012679336349664E-03
   1.038303276906919E-03   1.064575267350536E-03   1.091511681197510E-03
   1.119129304825490E-03   1.147445347840463E-03   1.176477453702788E-03
   1.206243710617426E-03   1.236762662695457E-03   1.268053321392937E-03
   1.300135177234138E-03   1.333028211825941E-03   1.366752910171191E-03
   1.401330273286496E-03   1.436781831133915E-03   1.473129655873636E-03
   1.510396375443973E-03   1.548605187478649E-03   1.587779873567780E-03
   1.627944813872408E-03   1.669125002100074E-03   1.711346060850311E-03
   1.754634257339120E-03   1.799016519511604E-03   1.844520452551935E-03
   1.891174355799780E-03   1.939007240084200E-03   1.988048845483288E-03
   2.038329659520956E-03   2.089880935810483E-03   2.142734713156221E-03
   2.196923835124060E-03   2.252481970090615E-03   2.309443631784878E-03
   2.367844200331508E-03   2.427719943808427E-03   2.489108040332236E-03
   2.552046600681260E-03   2.616574691471227E-03   2.682732358893880E-03
   2.750560653034867E-03   2.820101652781652E-03   2.891398491335720E-03
   2.964495382345225E-03   3.039437646668481E-03   3.116271739786742E-03
   3.195045279877740E-03   3.275807076568376E-03   3.358607160379582E-03
   3.443496812880145E-03   3.530528597564936E-03   3.619756391475532E-03
   3.711235417577791E-03   3.805022277914220E-03   3.901174987550066E-03
   3.999753009327844E-03   4.100817289450644E-03   4.204430293912021E-03
   4.310656045789231E-03   4.419560163423391E-03   4.531209899499112E-03
   4.645674181050150E-03   4.763023650406500E-03   4.883330707104916E-03
   5.006669550782872E-03   5.133116225078187E-03   5.262748662554240E-03
   5.395646730672986E-03   5.531892278837103E-03   5.671569186526323E-03
   5.814763412545103E-03   5.961563045411821E-03   6.112058354904616E-03
   6.266341844795673E-03   6.424508306790526E-03   6.586654875702577E-03
   6.752881085882231E-03   6.923288928929032E-03   7.097982912709777E-03
   7.277070121709474E-03   7.460660278738132E-03   7.648865808022417E-03
   7.841801899705063E-03   8.039586575779488E-03   8.242340757487716E-03
   8.450188334204013E-03   8.663256233834300E-03   8.881674494757767E-03
   9.105576339334899E-03   9.335098249012668E-03   9.570380041050833E-03
   9.811564946897288E-03   1.005879969224037E-02   1.031223457876313E-02
   1.057202356762888E-02   1.083832436472110E-02   1.111129850766845E-02
   1.139111145467796E-02   1.167793267520309E-02   1.197193574247333E-02
   1.227329842790997E-02   1.258220279745205E-02   1.289883530981813E-02
   1.322338691672718E-02   1.355605316510084E-02   1.389703430127040E-02
   1.424653537721014E-02   1.460476635881627E-02   1.497194223625278E-02
   1.534828313638170E-02   1.573401443729499E-02   1.612936688496608E-02
   1.653457671203112E-02   1.694988575871992E-02   1.737554159594004E-02
   1.781179765053063E-02   1.825891333268882E-02   1.871715416557663E-02
   1.918679191711030E-02   1.966810473393422E-02   2.016137727757516E-02
   2.066690086277492E-02   2.118497359799173E-02   2.171590052805962E-02
   2.225999377899126E-02   2.281757270490755E-02   2.338896403706880E-02
   2.397450203498414E-02   2.457452863956580E-02   2.518939362829442E-02
   2.581945477235335E-02   2.646507799568553E-02   2.712663753592292E-02
   2.780451610712704E-02   2.849910506427891E-02   2.921080456944561E-02
   2.994002375954361E-02   3.068718091561540E-02   3.145270363352001E-02
   3.223702899593878E-02   3.304060374557991E-02   3.386388445946217E-02
   3.470733772414372E-02   3.557144031175206E-02   3.645667935666388E-02
   3.736355253266221E-02   3.829256823039808E-02   3.924424573495741E-02
   4.021911540333108E-02   4.121771884156367E-02   4.224060908134400E-02
   4.328835075578506E-02   4.436152027411917E-02   4.546070599502192E-02
   4.658650839825534E-02   4.773954025430102E-02   4.892042679163545E-02
   5.012980586127434E-02   5.136832809819079E-02   5.263665707919094E-02
   5.393546947679746E-02   5.526545520867623E-02   5.662731758209964E-02
   5.802177343292258E-02   5.944955325851116E-02   6.091140134403149E-02
   6.240807588147423E-02   6.394034908075638E-02   6.550900727220092E-02
   6.711485099966327E-02   6.875869510352732E-02   7.044136879275664E-02
   7.216371570514106E-02   7.392659395483439E-02   7.573087616623086E-02
   7.757744949318257E-02   7.946721562250386E-02   8.140109076066085E-02
   8.338000560248546E-02   8.540490528069966E-02   8.747674929497409E-02
   8.959651141918459E-02   9.176517958546679E-02   9.398375574360221E-02
   9.625325569420520E-02   9.857470889410086E-02   1.009491582322241E-01
   1.033776597742816E-01   1.058612824743518E-01   1.084011078515114E-01
   1.109982296295003E-01   1.136537533373474E-01   1.163687958687980E-01
   1.191444849982898E-01   1.219819588511404E-01   1.248823653255097E-01
   1.278468614636085E-01   1.308766127695303E-01   1.339727924709798E-01
   1.371365807220752E-01   1.403691637442999E-01   1.436717329025753E-01
   1.470454837133217E-01   1.504916147812727E-01   1.540113266617032E-01
   1.576058206446242E-01   1.612762974573939E-01   1.650239558820929E-01
   1.688499912839015E-01   1.727555940466299E-01   1.767419479114332E-01
   1.808102282146620E-01   1.849616000207063E-01   1.891972161455845E-01
   1.935182150669715E-01   1.979257187162565E-01   2.024208301481633E-01
   2.070046310834058E-01   2.116781793197767E-01   2.164425060070483E-01
   2.212986127810072E-01   2.262474687519338E-01   2.312900073428423E-01
   2.364271229727684E-01   2.416596675804712E-01   2.469884469839075E-01
   2.524142170709375E-01   2.579376798168107E-01   2.635594791240627E-01
   2.692801964806495E-01   2.751003464322677E-01   2.810203718650513E-01
   2.870406390950745E-01   2.931614327613470E-01   2.993829505193584E-01
   3.057052975325522E-01   3.121284807595606E-01   3.186524030355070E-01
   3.252768569461777E-01   3.320015184945117E-01   3.388259405594609E-01
   3.457495461480296E-01   3.527716214421147E-01   3.598913086425986E-01
   3.671075986141854E-01   3.744193233354510E-01   3.818251481597795E-01
   3.893235638940953E-01   3.969128787036221E-01   4.045912098524259E-01
   4.123564752910157E-01   4.202063851040165E-01   4.281384328327643E-01
   4.361498866895868E-01   4.442377806826988E-01   4.523989056728206E-01
   4.606298003850456E-01   4.689267424020364E-01   4.772857391672631E-01
   4.857025190299238E-01   4.941725223661243E-01   5.026908928141103E-01
   5.112524686646738E-01   5.198517744513094E-01   5.284830127884155E-01
   5.371400565095753E-01   5.458164411619580E-01   5.545053579169834E-01
   5.631996469615899E-01   5.718917914388766E-01   5.805739120112962E-01
   5.892377621241831E-01   5.978747240520397E-01   6.064758058146449E-01
   6.150316390548282E-01   6.235324779743737E-01   6.319681994292135E-01
   6.403283042896224E-01   6.486019201755019E-01   6.567778056811349E-01
   6.648443562076984E-01   6.727896115255191E-01   6.806012651913211E-01
   6.882666759484580E-01   6.957728812404115E-01   7.031066129693292E-01
   7.102543156322052E-01   7.172021669672026E-01   7.239361012414605E-01
   7.304418353095121E-01   7.367048975678259E-01   7.427106599259721E-01
   7.484443729082836E-01   7.538912039913881E-01   7.590362792726043E-01
   7.638647285515374E-01   7.683617338922217E-01   7.725125817155825E-01
   7.763027184515403E-01   7.797178097566969E-01   7.827438032768098E-01
   7.853669949031372E-01   7.875740984378726E-01   7.893523185461397E-01
   7.906894268301796E-01   7.915738408152340E-01   7.919947055860493E-01
   7.919419777577978E-01   7.914065114053662E-01   7.903801455104218E-01
   7.888557924163575E-01   7.868275267072340E-01   7.842906738482880E-01
   7.812418978426794E-01   7.776792870721815E-01   7.736024373989489E-01
   7.690125315117807E-01   7.639124134041744E-01   7.583066567737499E-01
   7.522016260342679E-01   7.456055285337526E-01   7.385284564764476E-01
   7.309824169541888E-01   7.229813484061012E-01   7.145411217464001E-01
   7.056795243309861E-01   6.964162248770404E-01   6.867727174089905E-01
   6.767722422823448E-01   6.664396823374237E-01   6.558014322620642E-01
   6.448852392999184E-01   6.337200135335729E-01   6.223356061041981E-01
   6.107625539064512E-01   5.990317895244099E-01   5.871743154561789E-01
   5.752208420171325E-01   5.632013887193561E-01   5.511448494028826E-01
   5.390785219474338E-01   5.270276040254951E-01   5.150146570724539E-01
   5.030590414494418E-01   4.911763266610366E-01   4.793776814630937E-01
   4.676692497537346E-01   4.560531703145286E-01   4.445340711353070E-01
   4.331175708757202E-01   4.218091329546715E-01   4.106140586293883E-01
   3.995374803066905E-01   3.885843551182487E-01   3.777594587922462E-01
   3.670673798540933E-01   3.565125141886311E-01   3.460990599955315E-01
   3.358310131683094E-01   3.257121631254604E-01   3.157460891197026E-01
   3.059361570481323E-01   2.962855167823218E-01   2.867971000330538E-01
   2.774736187595723E-01   2.683175641280759E-01   2.593312060187901E-01
   2.505165930755321E-01   2.418755532863729E-01   2.334096950789900E-01
   2.251204089097663E-01   2.170088693217587E-01   2.090760374434674E-01
   2.013226638979508E-01   1.937492920903010E-01   1.863562618408145E-01
   1.791437133313179E-01   1.721115913329645E-01   1.652596496852974E-01
   1.585874559983486E-01   1.520943965518877E-01   1.457796813685062E-01
   1.396423494398939E-01   1.336812740883161E-01   1.278951684478424E-01
   1.222825910522179E-01   1.168419515183513E-01   1.115715163161886E-01
   1.064694146172075E-01   1.015336442149150E-01   9.676207751156393E-02
   9.215246756582882E-02   8.770245419644232E-02   8.340957013680778E-02
   7.927124723540753E-02   7.528482269646322E-02   7.144754535479914E-02
   6.775658197825486E-02   6.420902359031679E-02   6.080189180492174E-02
   5.753214516465513E-02   5.439668547284637E-02   5.139236410937485E-02
   4.851598831935978E-02   4.576432746333015E-02   4.313411921697111E-02
   4.062207570812712E-02   3.822488957842061E-02   3.593923995662063E-02
   3.376179833077350E-02   3.168923430608808E-02   2.971822123565256E-02
   2.784544171124552E-02   2.606759290178988E-02   2.438139172738021E-02
   2.278357985728788E-02   2.127092852090843E-02   1.984024312125678E-02
   1.848836764133133E-02   1.721218883445003E-02   1.600864019050462E-02
   1.487470567097380E-02   1.380742320647545E-02   1.280388795161445E-02
   1.186125529288638E-02   1.097674360642306E-02   1.014763676340276E-02
   9.371286381990170E-03   8.645113825710203E-03   7.966611949188199E-03
   7.333346593200178E-03   6.742957831963233E-03   6.193160976552023E-03
   5.681747339246227E-03   5.206584764490318E-03   4.765617932976095E-03
   4.356868446135278E-03   3.978434699050268E-03   3.628491550452077E-03
   3.305289799072662E-03   3.007155476152008E-03   2.732488964366076E-03
   2.479763953839155E-03   2.247526246232246E-03   2.034392418157607E-03
   1.839048355358764E-03   1.660247669215909E-03   1.496810007189814E-03
   1.347619268805027E-03   1.211621738697220E-03   1.087824148112659E-03
   9.752916760529178E-04   8.731459010082437E-04   7.805627139221455E-04
   6.967702026815307E-04   6.210465180352173E-04   5.527177304131359E-04
   4.911556866534239E-04   4.357758751494355E-04   3.860353074080725E-04
   3.414304234693577E-04   3.014950280795000E-04   2.657982639403726E-04
   2.339426277818260E-04   2.055620344239597E-04   1.803199334185536E-04
   1.579074822863365E-04   1.380417798034157E-04   1.204641622395569E-04
   1.049385649163349E-04   9.124995093746261E-05   7.920280844948351E-05
   6.861971732083340E-05   5.933998568301279E-05   5.121835636091969E-05
   4.412378283155384E-05   3.793827399225053E-05   3.255580669190681E-05
   2.788130468153044E-05   2.382968237372050E-05   2.032495156386065E-05
   1.729938905798379E-05   1.469276297219160E-05   1.245161531452740E-05
   1.052859833023752E-05   8.881861982886983E-06   7.474489853777743E-06
   6.273980666899904E-06   5.251772581919701E-06   4.382807337625249E-06
   3.645131271719054E-06   3.019530137472070E-06   2.489194865955870E-06
   2.039412626601041E-06   1.657297389319062E-06   1.331460463698108E-06
   1.053165138454318E-06   8.072215523699834E-07   0.000000000000000E+00
   0.000000000000000E+00   0.000000000000000E+00   0.000000000000000E+00
   0.000000000000000E+00   0.000000000000000E+00   0.000000000000000E+00
   0.000000000000000E+00   0.000000000000000E+00   0.000000000000000E+00
   0.000000000000000E+00   0.000000000000000E+00   0.000000000000000E+00
   0.000000000000000E+00   0.000000000000000E+00   0.000000000000000E+00
   0.000000000000000E+00   0.000000000000000E+00   0.000000000000000E+00
   0.000000000000000E+00   0.000000000000000E+00   0.000000000000000E+00
   0.000000000000000E+00   0.000000000000000E+00   0.000000000000000E+00
   0.000000000000000E+00   0.000000000000000E+00   0.000000000000000E+00
   0.000000000000000E+00   0.000000000000000E+00   0.000000000000000E+00
   0.000000000000000E+00   0.000000000000000E+00   0.000000000000000E+00
   0.000000000000000E+00   0.000000000000000E+00   0.000000000000000E+00
   0.000000000000000E+00   0.000000000000000E+00   0.000000000000000E+00
   0.000000000000000E+00   0.000000000000000E+00   0.000000000000000E+00
   0.000000000000000E+00   0.000000000000000E+00   0.000000000000000E+00
   0.000000000000000E+00   0.000000000000000E+00   0.000000000000000E+00
   0.000000000000000E+00   0.000000000000000E+00   0.000000000000000E+00
   0.000000000000000E+00   0.000000000000000E+00   0.000000000000000E+00
   0.000000000000000E+00   0.000000000000000E+00   0.000000000000000E+00
   0.000000000000000E+00   0.000000000000000E+00   0.000000000000000E+00
   0.000000000000000E+00   0.000000000000000E+00   0.000000000000000E+00
   0.000000000000000E+00   0.000000000000000E+00   0.000000000000000E+00
   0.000000000000000E+00   0.000000000000000E+00   0.000000000000000E+00
   0.000000000000000E+00   0.000000000000000E+00   0.000000000000000E+00
   0.000000000000000E+00   0.000000000000000E+00   0.000000000000000E+00
   0.000000000000000E+00   0.000000000000000E+00   0.000000000000000E+00
   0.000000000000000E+00   0.000000000000000E+00   0.000000000000000E+00
   0.000000000000000E+00   0.000000000000000E+00   0.000000000000000E+00
   0.000000000000000E+00   0.000000000000000E+00   0.000000000000000E+00
   0.000000000000000E+00   0.000000000000000E+00   0.000000000000000E+00
   0.000000000000000E+00   0.000000000000000E+00   0.000000000000000E+00
   0.000000000000000E+00   0.000000000000000E+00   0.000000000000000E+00
   0.000000000000000E+00   0.000000000000000E+00   0.000000000000000E+00
   0.000000000000000E+00   0.000000000000000E+00   0.000000000000000E+00
   0.000000000000000E+00   0.000000000000000E+00   0.000000000000000E+00
   0.000000000000000E+00   0.000000000000000E+00   0.000000000000000E+00
   0.000000000000000E+00   0.000000000000000E+00   0.000000000000000E+00
   0.000000000000000E+00   0.000000000000000E+00   0.000000000000000E+00
   0.000000000000000E+00   0.000000000000000E+00   0.000000000000000E+00
   0.000000000000000E+00   0.000000000000000E+00   0.000000000000000E+00
   0.000000000000000E+00   0.000000000000000E+00   0.000000000000000E+00
   0.000000000000000E+00   0.000000000000000E+00   0.000000000000000E+00
   0.000000000000000E+00   0.000000000000000E+00   0.000000000000000E+00
   0.000000000000000E+00   0.000000000000000E+00   0.000000000000000E+00
   0.000000000000000E+00   0.000000000000000E+00   0.000000000000000E+00
   0.000000000000000E+00   0.000000000000000E+00   0.000000000000000E+00
   0.000000000000000E+00   0.000000000000000E+00   0.000000000000000E+00
   0.000000000000000E+00   0.000000000000000E+00   0.000000000000000E+00
   0.000000000000000E+00   0.000000000000000E+00   0.000000000000000E+00
   0.000000000000000E+00   0.000000000000000E+00   0.000000000000000E+00
   0.000000000000000E+00   0.000000000000000E+00   0.000000000000000E+00
   0.000000000000000E+00   0.000000000000000E+00   0.000000000000000E+00
   0.000000000000000E+00   0.000000000000000E+00   0.000000000000000E+00
   0.000000000000000E+00   0.000000000000000E+00   0.000000000000000E+00
   0.000000000000000E+00   0.000000000000000E+00   0.000000000000000E+00
   0.000000000000000E+00   0.000000000000000E+00   0.000000000000000E+00
   0.000000000000000E+00   0.000000000000000E+00   0.000000000000000E+00
   0.000000000000000E+00   0.000000000000000E+00   0.000000000000000E+00
   0.000000000000000E+00   0.000000000000000E+00   0.000000000000000E+00
   0.000000000000000E+00   0.000000000000000E+00   0.000000000000000E+00
   0.000000000000000E+00   0.000000000000000E+00   0.000000000000000E+00
   0.000000000000000E+00   0.000000000000000E+00   0.000000000000000E+00
   0.000000000000000E+00   0.000000000000000E+00   0.000000000000000E+00
   0.000000000000000E+00   0.000000000000000E+00   0.000000000000000E+00
   0.000000000000000E+00   0.000000000000000E+00   0.000000000000000E+00
   0.000000000000000E+00
    </PP_PSWFC.3>
    <PP_PSWFC.4 size="1129" index="4" label="2P" l="1">
   1.110278483645461E-08   1.138385316994186E-08   1.167203678202315E-08
   1.196751579682626E-08   1.227047489834268E-08   1.258110344586090E-08
   1.289959559232224E-08   1.322615040567273E-08   1.356097199328689E-08
   1.390426962954167E-08   1.425625788661949E-08   1.461715676862293E-08
   1.498719184908435E-08   1.536659441195667E-08   1.575560159617342E-08
   1.615445654386806E-08   1.656340855234580E-08   1.698271322990248E-08
   1.741263265558792E-08   1.785343554301401E-08   1.830539740830916E-08
   1.876880074232491E-08   1.924393518720184E-08   1.973109771740522E-08
   2.023059282534377E-08   2.074273271168704E-08   2.126783748050107E-08
   2.180623533932373E-08   2.235826280430495E-08   2.292426491054036E-08
   2.350459542772913E-08   2.409961708129156E-08   2.470970177908417E-08
   2.533523084385402E-08   2.597659525157793E-08   2.663419587583477E-08
   2.730844373836453E-08   2.799976026597014E-08   2.870857755392273E-08
   2.943533863603524E-08   3.018049776157256E-08   3.094452067917212E-08
   3.172788492795170E-08   3.253108013598669E-08   3.335460832634362E-08
   3.419898423086033E-08   3.506473561187014E-08   3.595240359207022E-08
   3.686254299274053E-08   3.779572268052525E-08   3.875252592299219E-08
   3.973355075319414E-08   4.073941034345846E-08   4.177073338863940E-08
   4.282816449907292E-08   4.391236460347821E-08   4.502401136205965E-08
   4.616379959006597E-08   4.733244169207203E-08   4.853066810725465E-08
   4.975922776594000E-08   5.101888855770928E-08   5.231043781135411E-08
   5.363468278698203E-08   5.499245118058017E-08   5.638459164135115E-08
   5.781197430214606E-08   5.927549132332524E-08   6.077605745038662E-08
   6.231461058571127E-08   6.389211237478148E-08   6.550954880724025E-08
   6.716793083316582E-08   6.886829499494749E-08   7.061170407515792E-08
   7.239924776082517E-08   7.423204332452206E-08   7.611123632269668E-08
   7.803800131168126E-08   8.001354258182748E-08   8.203909491022508E-08
   8.411592433247708E-08   8.624532893401168E-08   8.842863966142639E-08
   9.066722115437199E-08   9.296247259849437E-08   9.531582859997015E-08
   9.772876008218000E-08   1.002027752050821E-07   1.027394203078597E-07
   1.053402808754304E-07   1.080069825294245E-07   1.107411920442490E-07
   1.135446183888735E-07   1.164190137949893E-07   1.193661748522080E-07
   1.223879436309864E-07   1.254862088339773E-07   1.286629069765269E-07
   1.319200235970579E-07   1.352595944980910E-07   1.386837070186847E-07
   1.421945013390870E-07   1.457941718184126E-07   1.494849683661871E-07
   1.532691978486065E-07   1.571492255304014E-07   1.611274765531982E-07
   1.652064374513080E-07   1.693886577058858E-07   1.736767513384331E-07
   1.780733985446412E-07   1.825813473695948E-07   1.872034154253829E-07
   1.919424916521924E-07   1.968015381239813E-07   2.017835918998646E-07
   2.068917669223676E-07   2.121292559637328E-07   2.174993326214988E-07
   2.230053533645945E-07   2.286507596312339E-07   2.344390799799155E-07
   2.403739322948766E-07   2.464590260473784E-07   2.526981646142326E-07
   2.590952476550255E-07   2.656542735495184E-07   2.723793418967515E-07
   2.792746560774145E-07   2.863445258810783E-07   2.935933701999411E-07
   3.010257197907612E-07   3.086462201067113E-07   3.164596342009209E-07
   3.244708457035182E-07   3.326848618740385E-07   3.411068167311045E-07
   3.497419742613306E-07   3.585957317094669E-07   3.676736229518224E-07
   3.769813219550965E-07   3.865246463227644E-07   3.963095609312391E-07
   4.063421816580866E-07   4.166287792046129E-07   4.271757830152257E-07
   4.379897852960118E-07   4.490775451350417E-07   4.604459927269857E-07
   4.721022337046652E-07   4.840535535802665E-07   4.963074222989751E-07
   5.088714989078896E-07   5.217536363431270E-07   5.349618863381089E-07
   5.485045044561029E-07   5.623899552501635E-07   5.766269175536890E-07
   5.912242899049171E-07   6.061911961087280E-07   6.215369909392531E-07
   6.372712659868396E-07   6.534038556530267E-07   6.699448432972917E-07
   6.869045675393806E-07   7.042936287212066E-07   7.221228955323026E-07
   7.404035118030100E-07   7.591469034696379E-07   7.783647857159195E-07
   7.980691702952864E-07   8.182723730384702E-07   8.389870215511749E-07
   8.602260631066125E-07   8.820027727378130E-07   9.043307615348273E-07
   9.272239851519240E-07   9.506967525301749E-07   9.747637348408402E-07
   9.994399746551286E-07   1.024740895346130E-06   1.050682310728702E-06
   1.077280434943419E-06   1.104551892590725E-06   1.132513729121592E-06
   1.161183421491266E-06   1.190578889082659E-06   1.220718504906277E-06
   1.251621107083678E-06   1.283306010621588E-06   1.315793019484127E-06
   1.349102438970574E-06   1.383255088406503E-06   1.418272314156185E-06
   1.454176002964350E-06   1.490988595635745E-06   1.528733101060916E-06
   1.567433110597080E-06   1.607112812813032E-06   1.647797008607265E-06
   1.689511126708862E-06   1.732281239570703E-06   1.776134079665032E-06
   1.821097056191542E-06   1.867198272208343E-06   1.914466542196668E-06
   1.962931410070132E-06   2.012623167639915E-06   2.063572873547373E-06
   2.115812372675845E-06   2.169374316053941E-06   2.224292181262567E-06
   2.280600293358560E-06   2.338333846328002E-06   2.397528925082515E-06
   2.458222528012467E-06   2.520452590110972E-06   2.584258006683306E-06
   2.649678657656473E-06   2.716755432504078E-06   2.785530255802234E-06
   2.856046113432254E-06   2.928347079446689E-06   3.002478343615436E-06
   3.078486239669033E-06   3.156418274257016E-06   3.236323156639172E-06
   3.318250829128422E-06   3.402252498304325E-06   3.488380667016585E-06
   3.576689167198801E-06   3.667233193512674E-06   3.760069337843928E-06
   3.855255624671407E-06   3.952851547331359E-06   4.052918105199826E-06
   4.155517841816024E-06   4.260714883970835E-06   4.368574981784698E-06
   4.479165549799857E-06   4.592555709112932E-06   4.708816330573729E-06
   4.828020079077658E-06   4.950241458979203E-06   5.075556860654881E-06
   5.204044608244829E-06   5.335785008602739E-06   5.470860401484856E-06
   5.609355211009301E-06   5.751355998417861E-06   5.896951516173325E-06
   6.046232763425980E-06   6.199293042884103E-06   6.356228019123857E-06
   6.517135778375048E-06   6.682116889820143E-06   6.851274468444727E-06
   7.024714239478798E-06   7.202544604469089E-06   7.384876709023614E-06
   7.571824512270959E-06   7.763504858077458E-06   7.960037548066944E-06
   8.161545416488598E-06   8.368154406979614E-06   8.579993651270758E-06
   8.797195549883827E-06   9.019895854871557E-06   9.248233754651561E-06
   9.482351960987278E-06   9.722396798170381E-06   9.968518294460132E-06
   1.022087027583704E-05   1.047961046212915E-05   1.074490056557112E-05
   1.101690639185768E-05   1.129579794375436E-05   1.158174952733044E-05
   1.187493986088042E-05   1.217555218660178E-05   1.248377438509911E-05
   1.279979909278586E-05   1.312382382225713E-05   1.345605108570868E-05
   1.379668852147899E-05   1.414594902379388E-05   1.450405087579397E-05
   1.487121788592874E-05   1.524767952780198E-05   1.563367108355577E-05
   1.602943379088305E-05   1.643521499375990E-05   1.685126829699211E-05
   1.727785372467236E-05   1.771523788264669E-05   1.816369412509214E-05
   1.862350272530895E-05   1.909495105083446E-05   1.957833374298762E-05
   2.007395290095630E-05   2.058211827054235E-05   2.110314743768189E-05
   2.163736602686204E-05   2.218510790455762E-05   2.274671538781450E-05
   2.332253945811049E-05   2.391293998062625E-05   2.451828592906382E-05
   2.513895561615261E-05   2.577533692998650E-05   2.642782757634005E-05
   2.709683532711422E-05   2.778277827506709E-05   2.848608509498842E-05
   2.920719531148036E-05   2.994655957351227E-05   3.070463993591971E-05
   3.148191014802413E-05   3.227885594955270E-05   3.309597537404262E-05
   3.393377905991956E-05   3.479279056944365E-05   3.567354671572217E-05
   3.657659789799240E-05   3.750250844538440E-05   3.845185696937635E-05
   3.942523672516398E-05   4.042325598216790E-05   4.144653840391014E-05
   4.249572343749701E-05   4.357146671294937E-05   4.467444045263122E-05
   4.580533389102988E-05   4.696485370514980E-05   4.815372445578850E-05
   4.937268903996796E-05   5.062250915480518E-05   5.190396577310863E-05
   5.321785963099817E-05   5.456501172785151E-05   5.594626383888724E-05
   5.736247904070535E-05   5.881454225011063E-05   6.030336077655495E-05
   6.182986488854228E-05   6.339500839434698E-05   6.499976923740951E-05
   6.664515010677694E-05   6.833217906296951E-05   7.006191017966190E-05
   7.183542420157712E-05   7.365382921900368E-05   7.551826135935352E-05
   7.742988549619135E-05   7.938989597617582E-05   8.139951736436254E-05
   8.346000520833449E-05   8.557264682163170E-05   8.773876208696810E-05
   8.995970427973384E-05   9.223686091229259E-05   9.457165459960068E-05
   9.696554394668220E-05   9.942002445851203E-05   1.019366294728711E-04
   1.045169311167502E-04   1.071625412868992E-04   1.098751126551243E-04
   1.126563396989608E-04   1.155079597583575E-04   1.184317541190258E-04
   1.214295491231278E-04   1.245032173079890E-04   1.276546785735387E-04
   1.308859013792046E-04   1.341989039709969E-04   1.375957556395447E-04
   1.410785780098611E-04   1.446495463636324E-04   1.483108909948530E-04
   1.520648985996364E-04   1.559139137010673E-04   1.598603401099708E-04
   1.639066424225007E-04   1.680553475554697E-04   1.723090463203731E-04
   1.766703950370721E-04   1.811421171881083E-04   1.857270051147673E-04
   1.904279217557359E-04   1.952478024296923E-04   2.001896566626200E-04
   2.052565700613432E-04   2.104517062339586E-04   2.157783087588936E-04
   2.212397032032390E-04   2.268392991921089E-04   2.325805925298927E-04
   2.384671673749904E-04   2.445026984691581E-04   2.506909534229372E-04
   2.570357950585707E-04   2.635411838117799E-04   2.702111801939885E-04
   2.770499473163165E-04   2.840617534769251E-04   2.912509748137161E-04
   2.986220980231671E-04   3.061797231476899E-04   3.139285664331258E-04
   3.218734632575139E-04   3.300193711338148E-04   3.383713727876625E-04
   3.469346793124407E-04   3.557146334034233E-04   3.647167126730669E-04
   3.739465330493124E-04   3.834098522590995E-04   3.931125733990480E-04
   4.030607485957923E-04   4.132605827576161E-04   4.237184374202964E-04
   4.344408346890331E-04   4.454344612790136E-04   4.567061726570351E-04
   4.682629972865766E-04   4.801121409791617E-04   4.922609913542245E-04
   5.047171224104570E-04   5.174882992113045E-04   5.305824826873089E-04
   5.440078345583859E-04   5.577727223787254E-04   5.718857247075208E-04
   5.863556364086219E-04   6.011914740820120E-04   6.164024816307699E-04
   6.319981359661948E-04   6.479881528553996E-04   6.643824929137029E-04
   6.811913677467083E-04   6.984252462438735E-04   7.160948610296070E-04
   7.342112150736129E-04   7.527855884651915E-04   7.718295453561999E-04
   7.913549410753895E-04   8.113739294189768E-04   8.318989701219164E-04
   8.529428365140375E-04   8.745186233650752E-04   8.966397549235064E-04
   9.193199931547809E-04   9.425734461812603E-04   9.664145769316214E-04
   9.908582120029389E-04   1.015919550740451E-03   1.041614174541688E-03
   1.067958056388444E-03   1.094967570613712E-03   1.122659502907457E-03
   1.151051060568982E-03   1.180159883009525E-03   1.210004052512610E-03
   1.240602105257268E-03   1.271973042611113E-03   1.304136342698910E-03
   1.337111972253504E-03   1.370920398755614E-03   1.405582602868834E-03
   1.441120091177960E-03   1.477554909235831E-03   1.514909654927654E-03
   1.553207492158649E-03   1.592472164873670E-03   1.632728011415798E-03
   1.673999979231642E-03   1.716313639931383E-03   1.759695204712140E-03
   1.804171540152046E-03   1.849770184383911E-03   1.896519363657437E-03
   1.944448009297719E-03   1.993585775069805E-03   2.043963054958204E-03
   2.095611001370359E-03   2.148561543773413E-03   2.202847407774581E-03
   2.258502134653535E-03   2.315560101358587E-03   2.374056540974786E-03
   2.434027563675550E-03   2.495510178168204E-03   2.558542313642887E-03
   2.623162842237469E-03   2.689411602027227E-03   2.757329420553063E-03
   2.826958138896708E-03   2.898340636317049E-03   2.971520855457118E-03
   3.046543828134885E-03   3.123455701729463E-03   3.202303766174687E-03
   3.283136481572424E-03   3.366003506438476E-03   3.450955726593118E-03
   3.538045284709328E-03   3.627325610532202E-03   3.718851451780986E-03
   3.812678905748487E-03   3.908865451611109E-03   4.007469983461463E-03
   4.108552844078682E-03   4.212175859449557E-03   4.318402374053707E-03
   4.427297286927188E-03   4.538927088518906E-03   4.653359898351944E-03
   4.770665503506098E-03   4.890915397933926E-03   5.014182822625281E-03
   5.140542806634015E-03   5.270072208980625E-03   5.402849761445837E-03
   5.538956112267595E-03   5.678473870756604E-03   5.821487652843490E-03
   5.968084127571525E-03   6.118352064547973E-03   6.272382382368162E-03
   6.430268198024410E-03   6.592104877313324E-03   6.757990086253883E-03
   6.928023843528352E-03   7.102308573958509E-03   7.280949163028110E-03
   7.464053012462405E-03   7.651730096876842E-03   7.844093021503042E-03
   8.041257081003204E-03   8.243340319380309E-03   8.450463590993825E-03
   8.662750622686873E-03   8.880328077032630E-03   9.103325616704686E-03
   9.331875969976656E-03   9.566114997354293E-03   9.806181759343249E-03
   1.005221858535297E-02   1.030437114373766E-02   1.056278851297186E-02
   1.082762325395894E-02   1.109903148346676E-02   1.137717294868546E-02
   1.166221110289831E-02   1.195431318225603E-02   1.225365028364292E-02
   1.256039744361862E-02   1.287473371842157E-02   1.319684226501149E-02
   1.352691042313202E-02   1.386512979836643E-02   1.421169634615830E-02
   1.456681045676909E-02   1.493067704113264E-02   1.530350561757368E-02
   1.568551039934402E-02   1.607691038293272E-02   1.647792943709831E-02
   1.688879639256807E-02   1.730974513234473E-02   1.774101468255455E-02
   1.818284930376716E-02   1.863549858270931E-02   1.909921752429218E-02
   1.957426664386133E-02   2.006091205957497E-02   2.055942558480790E-02
   2.107008482047082E-02   2.159317324712640E-02   2.212898031677765E-02
   2.267780154419168E-02   2.323993859761569E-02   2.381569938873239E-02
   2.440539816168837E-02   2.500935558102456E-02   2.562789881831946E-02
   2.626136163735042E-02   2.691008447756234E-02   2.757441453562135E-02
   2.825470584481686E-02   2.895131935206333E-02   2.966462299223423E-02
   3.039499175955070E-02   3.114280777572485E-02   3.190846035454706E-02
   3.269234606258264E-02   3.349486877562991E-02   3.431643973056913E-02
   3.515747757221295E-02   3.601840839474665E-02   3.689966577732594E-02
   3.780169081337582E-02   3.872493213311044E-02   3.966984591876993E-02
   4.063689591204188E-02   4.162655341311056E-02   4.263929727074731E-02
   4.367561386282773E-02   4.473599706662851E-02   4.582094821822875E-02
   4.693097606030435E-02   4.806659667757351E-02   4.922833341911380E-02
   5.041671680673616E-02   5.163228442856403E-02   5.287558081692569E-02
   5.414715730962980E-02   5.544757189365099E-02   5.677738903021088E-02
   5.813717946019645E-02   5.952751998881045E-02   6.094899324830649E-02
   6.240218743760876E-02   6.388769603757195E-02   6.540611750058536E-02
   6.695805491317328E-02   6.854411563019386E-02   7.016491087918522E-02
   7.182105533335133E-02   7.351316665162982E-02   7.524186498422331E-02
   7.700777244192536E-02   7.881151252751015E-02   8.065370952740247E-02
   8.253498786178512E-02   8.445597139124363E-02   8.641728267799348E-02
   8.841954219967629E-02   9.046336751365586E-02   9.254937236969307E-02
   9.467816576881785E-02   9.685035096617581E-02   9.906652441556432E-02
   1.013272746533329E-01   1.036331811192801E-01   1.059848129121234E-01
   1.083827274771030E-01   1.108274692232213E-01   1.133195680676108E-01
   1.158595379044936E-01   1.184478749961697E-01   1.210850562834785E-01
   1.237715376131595E-01   1.265077518795515E-01   1.292941070780920E-01
   1.321309842680865E-01   1.350187354422816E-01   1.379576813008002E-01
   1.409481089270815E-01   1.439902693635447E-01   1.470843750847814E-01
   1.502305973662162E-01   1.534290635462913E-01   1.566798541803993E-01
   1.599830000849672E-01   1.633384792702866E-01   1.667462137609366E-01
   1.702060663028861E-01   1.737178369566612E-01   1.772812595762948E-01
   1.808959981741116E-01   1.845616431718281E-01   1.882777075388544E-01
   1.920436228191800E-01   1.958587350487540E-01   1.997223005658145E-01
   2.036334817172837E-01   2.075913424649784E-01   2.115948438961442E-01
   2.156428396436060E-01   2.197340712216546E-01   2.238671632847422E-01
   2.280406188169991E-01   2.322528142616574E-01   2.365019946005882E-01
   2.407862683953295E-01   2.451036028022861E-01   2.494518185760952E-01
   2.538285850765997E-01   2.582314152963763E-01   2.626576609273301E-01
   2.671045074865710E-01   2.715689695234983E-01   2.760478859318739E-01
   2.805379153925655E-01   2.850355319746055E-01   2.895370209242965E-01
   2.940384746741803E-01   2.985357891058938E-01   3.030246601031681E-01
   3.075005804334931E-01   3.119588369993188E-01   3.163945085019728E-01
   3.208024635638513E-01   3.251773593567858E-01   3.295136407867852E-01
   3.338055402876716E-01   3.380470782782978E-01   3.422320643401733E-01
   3.463540991743165E-01   3.504065773979643E-01   3.543826912434406E-01
   3.582754352228685E-01   3.620776118235596E-01   3.657818382997201E-01
   3.693805546265349E-01   3.728660326827132E-01   3.762303867270671E-01
   3.794655852336548E-01   3.825634641483568E-01   3.855157416273507E-01
   3.883140343148268E-01   3.909498752132491E-01   3.934147331945161E-01
   3.957000341943818E-01   3.977971841253584E-01   3.996975935349930E-01
   4.013927040267268E-01   4.028740164494752E-01   4.041331208494723E-01
   4.051617281637190E-01   4.059517036184964E-01   4.064951017787179E-01
   4.067842031743841E-01   4.068115524089422E-01   4.065699976309333E-01
   4.060527312248746E-01   4.052533315498483E-01   4.041658055247839E-01
   4.027846318279263E-01   4.011048044445835E-01   3.991218762620057E-01
   3.968320023733565E-01   3.942319827143494E-01   3.913193036165201E-01
   3.880921778205998E-01   3.845495824524043E-01   3.806912944225640E-01
   3.765179226707860E-01   3.720309366358238E-01   3.672326902946850E-01
   3.621264410795959E-01   3.567163629499255E-01   3.510075528696075E-01
   3.450060299198320E-01   3.387187262632521E-01   3.321534691709839E-01
   3.253189533290103E-01   3.182247026577337E-01   3.108810209092871E-01
   3.032989303536978E-01   2.954900979289785E-01   2.874667483139792E-01
   2.792415634882315E-01   2.708275684723572E-01   2.622380030979239E-01
   2.534861798388344E-01   2.445853279495029E-01   2.355484243996086E-01
   2.263880123727882E-01   2.171160084080015E-01   2.077434996081669E-01
   1.982805327209774E-01   1.887358973106609E-01   1.791169056854827E-01
   1.694291727211713E-01   1.596763992215789E-01   1.498601629797336E-01
   1.399797222382652E-01   1.300323487264582E-01   1.200154884546148E-01
   1.099265049053894E-01   9.976233147519170E-02   8.951944467258692E-02
   7.919383583063150E-02   6.878098122450735E-02   5.827581047414742E-02
   4.767267309832805E-02   3.696530307176554E-02   2.614678121992230E-02
   1.520949526732621E-02   4.145097334062683E-03  -7.055541348455900E-03
  -1.840237875746628E-02  -2.990625371845338E-02  -4.157894117998242E-02
  -5.343321147413398E-02  -6.548289395085551E-02  -7.774294541584295E-02
  -9.022952384642632E-02  -1.029600679085974E-01  -1.159533828510950E-01
  -1.292297334097357E-01  -1.428109444174174E-01  -1.567205098830166E-01
  -1.709837113764447E-01  -1.856277466382510E-01  -2.006818694213362E-01
  -2.161775416706710E-01  -2.321485992556692E-01  -2.486314325904647E-01
  -2.656651836113660E-01  -2.832919607299823E-01  -3.015570735469115E-01
  -3.205092892966056E-01  -3.402011132015364E-01  -3.606890951457707E-01
  -3.820341653375617E-01  -4.043020019209677E-01  -4.275634338216448E-01
  -4.518948824761360E-01  -4.773788465020622E-01  -5.041044338241425E-01
  -5.321679462841695E-01  -5.616735223390742E-01  -5.927338440980964E-01
  -6.254709156770489E-01  -6.600169206652070E-01  -6.965151674204137E-01
  -7.351211319442358E-01  -7.760036092569748E-01  -8.193459855098860E-01
  -8.653476445594132E-01  -9.142255244089580E-01  -9.662158408243661E-01
  -1.021575997580580E+00  -1.080586705233929E+00  -1.143554333077679E+00
  -1.210813522074252E+00  -1.282730090119240E+00  -1.359704265041726E+00
  -1.442174285353286E+00  -1.530620414006315E+00  -1.625569416405699E+00
  -1.727599560745500E+00  -1.837346206541034E+00  -1.955508056143023E+00
  -2.082854154224445E+00  -2.220231731919799E+00  -2.368575005700032E+00
  -2.528915056451257E+00  -2.702390931902316E+00  -2.890262135877403E+00
  -3.093922691258007E+00  -3.314916990517091E+00  -3.554957678815007E+00
  -3.815945850597127E+00  -4.099993882199727E+00  -4.409451271082661E+00
  -4.746933908056739E+00  -5.115357273544295E+00  -5.517974124014793E+00
  -5.958417322055230E+00  -6.440748565170097E+00  -6.969513886841933E+00
  -7.549806941559625E+00  -8.187341246917734E+00  -8.888532744633206E+00
  -9.660594263315360E+00  -1.051164372488550E+01  -1.145082824060620E+01
  -1.248846660000915E+01  -1.363621307646282E+01  -1.490724596847800E+01
  -1.631648488020189E+01  -1.788084143478611E+01  -1.961950893068480E+01
  -2.155429741777565E+01  -2.371002181676875E+01  -2.611495206692804E+01
  -2.880133590620490E+01  -3.180600681584117E+01  -3.517109196048052E+01
  -3.894483770010933E+01  -4.318257353305969E+01  -4.794783926080723E+01
  -5.331370488040270E+01  -5.936431837362205E+01  -6.619672337411828E+01
  -7.392299690047166E+01  -8.267276724457496E+01  -9.259618406973745E+01
  -1.038674272537878E+02  -1.166888585659730E+02  -1.312959415784566E+02
  -1.479630811301614E+02  -1.670105652289076E+02  -1.888128307928728E+02
  -2.138083217013060E+02  -2.425112652437145E+02  -2.755257637113286E+02
  -3.135626846626031E+02  -3.574599401852840E+02  -4.082068771125504E+02
  -4.669736626984687E+02  -5.351467513389688E+02  -6.143717671258448E+02
  -7.066054464265054E+02  -8.141786695503362E+02  -9.398730901990962E+02
  -1.087014470275927E+03  -1.259586576827329E+03  -1.462370436969735E+03
  -1.701114926044673E+03  -1.982746148398031E+03  -2.315624941596899E+03
  -2.709864199433397E+03  -3.177720702801103E+03  -3.734079945781931E+03
  -4.397057273389623E+03  -5.188744800224003E+03  -6.136141435508504E+03
  -7.272313393040557E+03  -8.637845457108444E+03  -1.028265984624307E+04
  -1.226830086318671E+04  -1.467081108067986E+04  -1.758436047991558E+04
  -2.112583622345136E+04  -2.544066089736244E+04  -3.071018545400573E+04
  -3.716110550648774E+04  -4.507748375680068E+04  -5.481613743370758E+04
  -6.682638137953661E+04  -8.167542322650489E+04  -1.000811116265392E+05
  -1.229542749977837E+05  -1.514536016446917E+05  -1.870569632329493E+05
  -2.316543550719140E+05  -2.876693309758441E+05  -3.582181012562878E+05
  -4.473185499833819E+05  -5.601656008718023E+05  -7.034950177304450E+05
  -8.860654146445531E+05  -1.119298733723623E+06  -1.418133781200613E+06
  -1.802167068425978E+06  -2.297182240733723E+06  -2.937206678970767E+06
  -3.767285481943497E+06  -4.847234704639596E+06  -6.256735532736658E+06
  -8.102270511024500E+06  -1.052659837870833E+07  -1.372173888309265E+07
  -1.794682666841912E+07  -2.355274218777704E+07  -3.101620715548601E+07
  -4.098714313017194E+07  -5.435468086137700E+07  -7.233948864774768E+07
  -9.662337276515518E+07  -1.295318512229720E+08  -1.742922906431264E+08
  -2.354002265730473E+08  -3.191411476581943E+08  -4.343365315427392E+08
  -5.934145939657459E+08  -8.139530381259713E+08   0.000000000000000E+00
   0.000000000000000E+00   0.000000000000000E+00   0.000000000000000E+00
   0.000000000000000E+00   0.000000000000000E+00   0.000000000000000E+00
   0.000000000000000E+00   0.000000000000000E+00   0.000000000000000E+00
   0.000000000000000E+00   0.000000000000000E+00   0.000000000000000E+00
   0.000000000000000E+00   0.000000000000000E+00   0.000000000000000E+00
   0.000000000000000E+00   0.000000000000000E+00   0.000000000000000E+00
   0.000000000000000E+00   0.000000000000000E+00   0.000000000000000E+00
   0.000000000000000E+00   0.000000000000000E+00   0.000000000000000E+00
   0.000000000000000E+00   0.000000000000000E+00   0.000000000000000E+00
   0.000000000000000E+00   0.000000000000000E+00   0.000000000000000E+00
   0.000000000000000E+00   0.000000000000000E+00   0.000000000000000E+00
   0.000000000000000E+00   0.000000000000000E+00   0.000000000000000E+00
   0.000000000000000E+00   0.000000000000000E+00   0.000000000000000E+00
   0.000000000000000E+00   0.000000000000000E+00   0.000000000000000E+00
   0.000000000000000E+00   0.000000000000000E+00   0.000000000000000E+00
   0.000000000000000E+00   0.000000000000000E+00   0.000000000000000E+00
   0.000000000000000E+00   0.000000000000000E+00   0.000000000000000E+00
   0.000000000000000E+00   0.000000000000000E+00   0.000000000000000E+00
   0.000000000000000E+00   0.000000000000000E+00   0.000000000000000E+00
   0.000000000000000E+00   0.000000000000000E+00   0.000000000000000E+00
   0.000000000000000E+00   0.000000000000000E+00   0.000000000000000E+00
   0.000000000000000E+00   0.000000000000000E+00   0.000000000000000E+00
   0.000000000000000E+00   0.000000000000000E+00   0.000000000000000E+00
   0.000000000000000E+00   0.000000000000000E+00   0.000000000000000E+00
   0.000000000000000E+00   0.000000000000000E+00   0.000000000000000E+00
   0.000000000000000E+00   0.000000000000000E+00   0.000000000000000E+00
   0.000000000000000E+00   0.000000000000000E+00   0.000000000000000E+00
   0.000000000000000E+00   0.000000000000000E+00   0.000000000000000E+00
   0.000000000000000E+00   0.000000000000000E+00   0.000000000000000E+00
   0.000000000000000E+00   0.000000000000000E+00   0.000000000000000E+00
   0.000000000000000E+00   0.000000000000000E+00   0.000000000000000E+00
   0.000000000000000E+00   0.000000000000000E+00   0.000000000000000E+00
   0.000000000000000E+00   0.000000000000000E+00   0.000000000000000E+00
   0.000000000000000E+00   0.000000000000000E+00   0.000000000000000E+00
   0.000000000000000E+00   0.000000000000000E+00   0.000000000000000E+00
   0.000000000000000E+00   0.000000000000000E+00   0.000000000000000E+00
   0.000000000000000E+00   0.000000000000000E+00   0.000000000000000E+00
   0.000000000000000E+00   0.000000000000000E+00   0.000000000000000E+00
   0.000000000000000E+00   0.000000000000000E+00   0.000000000000000E+00
   0.000000000000000E+00   0.000000000000000E+00   0.000000000000000E+00
   0.000000000000000E+00   0.000000000000000E+00   0.000000000000000E+00
   0.000000000000000E+00   0.000000000000000E+00   0.000000000000000E+00
   0.000000000000000E+00   0.000000000000000E+00   0.000000000000000E+00
   0.000000000000000E+00   0.000000000000000E+00   0.000000000000000E+00
   0.000000000000000E+00   0.000000000000000E+00   0.000000000000000E+00
   0.000000000000000E+00   0.000000000000000E+00   0.000000000000000E+00
   0.000000000000000E+00   0.000000000000000E+00   0.000000000000000E+00
   0.000000000000000E+00   0.000000000000000E+00   0.000000000000000E+00
   0.000000000000000E+00   0.000000000000000E+00   0.000000000000000E+00
   0.000000000000000E+00   0.000000000000000E+00   0.000000000000000E+00
   0.000000000000000E+00   0.000000000000000E+00   0.000000000000000E+00
   0.000000000000000E+00
    </PP_PSWFC.4>
  </PP_FULL_WFC>
  <PP_RHOATOM size="1129">
   5.331467697719430E-07   5.466434443632156E-07   5.604817888911281E-07
   5.746704527709304E-07   5.892183043788445E-07   6.041344365950836E-07
   6.194281724871974E-07   6.351090711372940E-07   6.511869336167707E-07
   6.676718091123080E-07   6.845740012069294E-07   7.019040743200778E-07
   7.196728603107189E-07   7.378914652476018E-07   7.565712763509179E-07
   7.757239691096716E-07   7.953615145792456E-07   8.154961868636957E-07
   8.361405707874603E-07   8.573075697612897E-07   8.790104138472850E-07
   9.012626680281200E-07   9.240782406855930E-07   9.474713922938130E-07
   9.714567443324608E-07   9.960492884256789E-07   1.021264395712325E-06
   1.047117826453431E-06   1.073625739882867E-06   1.100804704307397E-06
   1.128671707462390E-06   1.157244167129713E-06   1.186539942024401E-06
   1.216577342956929E-06   1.247375144278063E-06   1.278952595613430E-06
   1.311329433895152E-06   1.344525895698069E-06   1.378562729888243E-06
   1.413461210591678E-06   1.449243150491319E-06   1.485930914460687E-06
   1.523547433542646E-06   1.562116219282031E-06   1.601661378421141E-06
   1.642207627967198E-06   1.683780310641291E-06   1.726405410718378E-06
   1.770109570268300E-06   1.814920105807923E-06   1.860865025374839E-06
   1.907973046033283E-06   1.956273611823224E-06   2.005796912163819E-06
   2.056573900722792E-06   2.108636314763438E-06   2.162016694981437E-06
   2.216748405843836E-06   2.272865656442894E-06   2.330403521877873E-06
   2.389397965178076E-06   2.449885859780895E-06   2.511905012578884E-06
   2.575494187550270E-06   2.640693129987684E-06   2.707542591340215E-06
   2.776084354684370E-06   2.846361260839829E-06   2.918417235146308E-06
   2.992297314918306E-06   3.068047677594837E-06   3.145715669601801E-06
   3.225349835945002E-06   3.306999950552306E-06   3.390717047383938E-06
   3.476553452330296E-06   3.564562815917297E-06   3.654800146839648E-06
   3.747321846343013E-06   3.842185743476584E-06   3.939451131238022E-06
   4.039178803633482E-06   4.141431093675751E-06   4.246271912344350E-06
   4.353766788531915E-06   4.463982910001769E-06   4.576989165382422E-06
   4.692856187225078E-06   4.811656396151209E-06   4.933464046117722E-06
   5.058355270827951E-06   5.186408131317620E-06   5.317702664745416E-06
   5.452320934418692E-06   5.590347081085608E-06   5.731867375525655E-06
   5.876970272471613E-06   6.025746465896456E-06   6.178288945699898E-06
   6.334693055829984E-06   6.495056553875913E-06   6.659479672169597E-06
   6.828065180433935E-06   7.000918450017007E-06   7.178147519752463E-06
   7.359863163487002E-06   7.546178959317470E-06   7.737211360580590E-06
   7.933079768639856E-06   8.133906607515038E-06   8.339817400400832E-06
   8.550940848122690E-06   8.767408909578723E-06   8.989356884217950E-06
   9.216923496606592E-06   9.450250983135001E-06   9.689485180919685E-06
   9.934775618955886E-06   1.018627561157760E-05   1.044414235428370E-05
   1.070853702198961E-05   1.097962486976655E-05   1.125757533613074E-05
   1.154256214894745E-05   1.183476343401611E-05   1.213436182640402E-05
   1.244154458459864E-05   1.275650370754963E-05   1.307943605467368E-05
   1.341054346889742E-05   1.375003290281500E-05   1.409811654803942E-05
   1.445501196782836E-05   1.482094223306737E-05   1.519613606169570E-05
   1.558082796166123E-05   1.597525837749467E-05   1.637967384059419E-05
   1.679432712331433E-05   1.721947739695591E-05   1.765539039375513E-05
   1.810233857297362E-05   1.856060129119300E-05   1.903046497692032E-05
   1.951222330961379E-05   2.000617740324025E-05   2.051263599447960E-05
   2.103191563569355E-05   2.156434089277913E-05   2.211024454803122E-05
   2.266996780814003E-05   2.324386051745437E-05   2.383228137664341E-05
   2.443559816689388E-05   2.505418797978295E-05   2.568843745296979E-05
   2.633874301185412E-05   2.700551111735207E-05   2.768915851994430E-05
   2.839011252015561E-05   2.910881123562794E-05   2.984570387495493E-05
   3.060125101844799E-05   3.137592490601000E-05   3.217020973229681E-05
   3.298460194934965E-05   3.381961057689009E-05   3.467575752046838E-05
   3.555357789766668E-05   3.645362037255985E-05   3.737644749864212E-05
   3.832263607043627E-05   3.929277748400216E-05   4.028747810657227E-05
   4.130735965554440E-05   4.235305958706725E-05   4.342523149446493E-05
   4.452454551674502E-05   4.565168875744953E-05   4.680736571410829E-05
   4.799229871856286E-05   4.920722838843888E-05   5.045291409004499E-05
   5.173013441299134E-05   5.303968765682228E-05   5.438239232996683E-05
   5.575908766132202E-05   5.717063412478407E-05   5.861791397705920E-05
   6.010183180908872E-05   6.162331511143161E-05   6.318331485396164E-05
   6.478280608023663E-05   6.642278851691506E-05   6.810428719859985E-05
   6.982835310849745E-05   7.159606383529765E-05   7.340852424667871E-05
   7.526686717986350E-05   7.717225414965638E-05   7.912587607440093E-05
   8.112895402031869E-05   8.318273996468560E-05   8.528851757833033E-05
   8.744760302794032E-05   8.966134579867468E-05   9.193112953760482E-05
   9.425837291850180E-05   9.664453052851655E-05   9.909109377730579E-05
   1.015995918291682E-04   1.041715925587812E-04   1.068087035311256E-04
   1.095125730062191E-04   1.122848909692828E-04   1.151273901869814E-04
   1.180418472904058E-04   1.210300838854653E-04   1.240939676913885E-04
   1.272354137080457E-04   1.304563854128150E-04   1.337588959877516E-04
   1.371450095778136E-04   1.406168425809423E-04   1.441765649707971E-04
   1.478264016529697E-04   1.515686338555339E-04   1.554056005547882E-04
   1.593396999370909E-04   1.633733908976996E-04   1.675091945775451E-04
   1.717496959389123E-04   1.760975453809985E-04   1.805554603963699E-04
   1.851262272693471E-04   1.898127028173755E-04   1.946178161764821E-04
   1.995445706319182E-04   2.045960454951438E-04   2.097753980283229E-04
   2.150858654175258E-04   2.205307667958866E-04   2.261135053179603E-04
   2.318375702865916E-04   2.377065393336176E-04   2.437240806557640E-04
   2.498939553071400E-04   2.562200195497544E-04   2.627062272635301E-04
   2.693566324173172E-04   2.761753916024490E-04   2.831667666304275E-04
   2.903351271963556E-04   2.976849536097837E-04   3.052208395946780E-04
   3.129474951602531E-04   3.208697495444708E-04   3.289925542320357E-04
   3.373209860487806E-04   3.458602503343682E-04   3.546156841952940E-04
   3.635927598402237E-04   3.727970879997431E-04   3.822344214326639E-04
   3.919106585210709E-04   4.018318469563543E-04   4.120041875185362E-04
   4.224340379512436E-04   4.331279169347550E-04   4.440925081595986E-04
   4.553346645032451E-04   4.668614123125079E-04   4.786799557943195E-04
   4.907976815176325E-04   5.032221630292509E-04   5.159611655864769E-04
   5.290226510095311E-04   5.424147826567690E-04   5.561459305258068E-04
   5.702246764837442E-04   5.846598196297378E-04   5.994603817932883E-04
   6.146356131716635E-04   6.301949981099826E-04   6.461482610275717E-04
   6.625053724942785E-04   6.792765554605645E-04   6.964722916452308E-04
   7.141033280847952E-04   7.321806838485972E-04   7.507156569238102E-04
   7.697198312746861E-04   7.892050840804118E-04   8.091835931561109E-04
   8.296678445616225E-04   8.506706404027909E-04   8.722051068301584E-04
   8.942847022400278E-04   9.169232256830376E-04   9.401348254854741E-04
   9.639340080887166E-04   9.883356471123241E-04   1.013354992646418E-03
   1.039007680779162E-03   1.065309743365286E-03   1.092277618041727E-03
   1.119928158496681E-03   1.148278644998411E-03   1.177346795190436E-03
   1.207150775159795E-03   1.237709210785304E-03   1.269041199372896E-03
   1.301166321585271E-03   1.334104653673316E-03   1.367876780016934E-03
   1.402503805983057E-03   1.438007371108922E-03   1.474409662618764E-03
   1.511733429282407E-03   1.550001995624367E-03   1.589239276492312E-03
   1.629469791993993E-03   1.670718682811930E-03   1.713011725905391E-03
   1.756375350609485E-03   1.800836655141371E-03   1.846423423523851E-03
   1.893164142936943E-03   1.941088021508202E-03   1.990225006552877E-03
   2.040605803275292E-03   2.092261893943034E-03   2.145225557545982E-03
   2.199529889952335E-03   2.255208824574225E-03   2.312297153555803E-03
   2.370830549496911E-03   2.430845587725972E-03   2.492379769135849E-03
   2.555471543596969E-03   2.620160333962242E-03   2.686486560678692E-03
   2.754491667021154E-03   2.824218144963716E-03   2.895709561704968E-03
   2.969010586863626E-03   3.044167020361318E-03   3.121225821010013E-03
   3.200235135821754E-03   3.281244330058947E-03   3.364304018043924E-03
   3.449466094746806E-03   3.536783768171447E-03   3.626311592559438E-03
   3.718105502432875E-03   3.812222847497018E-03   3.908722428424441E-03
   4.007664533543007E-03   4.109110976450330E-03   4.213125134578128E-03
   4.319771988730382E-03   4.429118163619761E-03   4.541231969427572E-03
   4.656183444412917E-03   4.774044398597473E-03   4.894888458553055E-03
   5.018791113319544E-03   5.145829761481847E-03   5.276083759434868E-03
   5.409634470866462E-03   5.546565317489029E-03   5.686961831051001E-03
   5.830911706660644E-03   5.978504857454933E-03   6.129833470647454E-03
   6.284992064989967E-03   6.444077549683028E-03   6.607189284772256E-03
   6.774429143067450E-03   6.945901573622769E-03   7.121713666817309E-03
   7.301975221075997E-03   7.486798811272247E-03   7.676299858854391E-03
   7.870596703739166E-03   8.069810678016556E-03   8.274066181511509E-03
   8.483490759248799E-03   8.698215180869100E-03   8.918373522044823E-03
   9.144103247945977E-03   9.375545298807374E-03   9.612844177649599E-03
   9.856148040207947E-03   1.010560878712425E-02   1.036138215845841E-02
   1.062362783057753E-02   1.089250951548200E-02   1.116819506262957E-02
   1.145085656331972E-02   1.174067045770219E-02   1.203781764447534E-02
   1.234248359334113E-02   1.265485846028587E-02   1.297513720575678E-02
   1.330351971580686E-02   1.364021092628185E-02   1.398542095012476E-02
   1.433936520787622E-02   1.470226456144945E-02   1.507434545126160E-02
   1.545584003680508E-02   1.584698634074362E-02   1.624802839662151E-02
   1.665921640027492E-02   1.708080686503742E-02   1.751306278083400E-02
   1.795625377725918E-02   1.841065629073876E-02   1.887655373587569E-02
   1.935423668108360E-02   1.984400302861426E-02   2.034615819908699E-02
   2.086101532063168E-02   2.138889542275891E-02   2.193012763507371E-02
   2.248504939095248E-02   2.305400663630478E-02   2.363735404354566E-02
   2.423545523090610E-02   2.484868298721286E-02   2.547741950227207E-02
   2.612205660299340E-02   2.678299599539611E-02   2.746064951264062E-02
   2.815543936923268E-02   2.886779842155162E-02   2.959817043485586E-02
   3.034701035692500E-02   3.111478459849887E-02   3.190197132067984E-02
   3.270906072946694E-02   3.353655537759515E-02   3.438497047385710E-02
   3.525483420008840E-02   3.614668803600152E-02   3.706108709205867E-02
   3.799860045057638E-02   3.895981151526141E-02   3.994531836938024E-02
   4.095573414276905E-02   4.199168738789776E-02   4.305382246520295E-02
   4.414279993791331E-02   4.525929697659310E-02   4.640400777363558E-02
   4.757764396794352E-02   4.878093508003782E-02   5.001462895784298E-02
   5.127949223340079E-02   5.257631079077102E-02   5.390589024538309E-02
   5.526905643510682E-02   5.666665592331931E-02   5.809955651424729E-02
   5.956864778087246E-02   6.107484160569307E-02   6.261907273463969E-02
   6.420229934445153E-02   6.582550362382403E-02   6.748969236864552E-02
   6.919589759164813E-02   7.094517714680121E-02   7.273861536878801E-02
   7.457732372790667E-02   7.646244150074738E-02   7.839513645700369E-02
   8.037660556278034E-02   8.240807570077091E-02   8.449080440768232E-02
   8.662608062929096E-02   8.881522549352396E-02   9.105959310196235E-02
   9.336057134017543E-02   9.571958270729711E-02   9.813808516526587E-02
   1.006175730081571E-01   1.031595777520387E-01   1.057656690457963E-01
   1.084374556033743E-01   1.111765861578885E-01   1.139847504380754E-01
   1.168636801675431E-01   1.198151500873065E-01   1.228409790020848E-01
   1.259430308508530E-01   1.291232158021449E-01   1.323834913746063E-01
   1.357258635833098E-01   1.391523881123465E-01   1.426651715142094E-01
   1.462663724365011E-01   1.499582028764890E-01   1.537429294640484E-01
   1.576228747735311E-01   1.616004186651029E-01   1.656779996560992E-01
   1.698581163229444E-01   1.741433287341949E-01   1.785362599152558E-01
   1.830395973453287E-01   1.876560944871516E-01   1.923885723500809E-01
   1.972399210870820E-01   2.022131016261763E-01   2.073111473369006E-01
   2.125371657323311E-01   2.178943402072096E-01   2.233859318127217E-01
   2.290152810684523E-01   2.347858098120474E-01   2.407010230870966E-01
   2.467645110697397E-01   2.529799510344922E-01   2.593511093597670E-01
   2.658818435735498E-01   2.725761044396810E-01   2.794379380851550E-01
   2.864714881688499E-01   2.936809980920555E-01   3.010708132511524E-01
   3.086453833327583E-01   3.164092646516256E-01   3.243671225315420E-01
   3.325237337294400E-01   3.408839889028819E-01   3.494528951210391E-01
   3.582355784192284E-01   3.672372863970240E-01   3.764633908598877E-01
   3.859193905042104E-01   3.956109136455769E-01   4.055437209899883E-01
   4.157237084477100E-01   4.261569099893049E-01   4.368495005433284E-01
   4.478077989350607E-01   4.590382708655286E-01   4.705475319299710E-01
   4.823423506747608E-01   4.944296516916631E-01   5.068165187481724E-01
   5.195101979525003E-01   5.325181009516406E-01   5.458478081607394E-01
   5.595070720218199E-01   5.735038202897119E-01   5.878461593427968E-01
   6.025423775159834E-01   6.176009484530517E-01   6.330305344752496E-01
   6.488399899627588E-01   6.650383647453156E-01   6.816349074980015E-01
   6.986390691378336E-01   7.160605062164473E-01   7.339090843037928E-01
   7.521948813573155E-01   7.709281910707222E-01   7.901195261959082E-01
   8.097796218311829E-01   8.299194386683895E-01   8.505501661909569E-01
   8.716832258143719E-01   8.933302739598993E-01   9.155032050517512E-01
   9.382141544272139E-01   9.614755011484559E-01   9.852998707040536E-01
   1.009700137587350E+00   1.034689427737953E+00   1.060281120831734E+00
   1.086488852403710E+00   1.113326515787186E+00   1.140808263851408E+00
   1.168948510518877E+00   1.197761932042227E+00   1.227263468019289E+00
   1.257468322123670E+00   1.288391962526700E+00   1.320050121985120E+00
   1.352458797567370E+00   1.385634249989567E+00   1.419593002530683E+00
   1.454351839494457E+00   1.489927804183786E+00   1.526338196351256E+00
   1.563600569087388E+00   1.601732725106022E+00   1.640752712383881E+00
   1.680678819109007E+00   1.721529567890242E+00   1.763323709177238E+00
   1.806080213837876E+00   1.849818264836973E+00   1.894557247957324E+00
   1.940316741500987E+00   1.987116504905509E+00   2.034976466206575E+00
   2.083916708275056E+00   2.133957453752954E+00   2.185119048609112E+00
   2.237421944231762E+00   2.290886677971252E+00   2.345533852042262E+00
   2.401384110690869E+00   2.458458115527728E+00   2.516776518924429E+00
   2.576359935366040E+00   2.637228910648404E+00   2.699403888804718E+00
   2.762905176641552E+00   2.827752905760279E+00   2.893966991935801E+00
   2.961567091720296E+00   3.030572556135835E+00   3.101002381315935E+00
   3.172875155952457E+00   3.246209005401092E+00   3.321021532295518E+00
   3.397329753517708E+00   3.475150033369772E+00   3.554498012790763E+00
   3.635388534461049E+00   3.717835563636219E+00   3.801852104552851E+00
   3.887450112249759E+00   3.974640399650369E+00   4.063432539755397E+00
   4.153834762799315E+00   4.245853848230174E+00   4.339495011379844E+00
   4.434761784700684E+00   4.531655893456197E+00   4.630177125765753E+00
   4.730323196919351E+00   4.832089607896242E+00   4.935469498041407E+00
   5.040453491878209E+00   5.147029540061436E+00   5.255182754505784E+00
   5.364895237758551E+00   5.476145906722910E+00   5.588910310880891E+00
   5.703160445211306E+00   5.818864558049737E+00   5.935986954194586E+00
   6.054487793624570E+00   6.174322886261863E+00   6.295443483287800E+00
   6.417796065598662E+00   6.541322130075414E+00   6.665957974433607E+00
   6.791634481520392E+00   6.918276904031244E+00   7.045804650733223E+00
   7.174131075401945E+00   7.303163269806266E+00   7.432801862209550E+00
   7.562940822995618E+00   7.693467279174422E+00   7.824261339674029E+00
   7.955195933481131E+00   8.086136662853260E+00   8.216941673987773E+00
   8.347461547697115E+00   8.477539212804162E+00   8.607009885132364E+00
   8.735701035124645E+00   8.863432387275139E+00   8.990015954700713E+00
   9.115256112309101E+00   9.238949712133637E+00   9.360886244500112E+00
   9.480848048760324E+00   9.598610577369435E+00   9.713942717091747E+00
   9.826607171087652E+00   9.936360905558331E+00   1.004295566449535E+01
   1.014613855589584E+01   1.024565271255140E+01   1.034123803019311E+01
   1.043263198537008E+01   1.051957053494511E+01   1.060178909850245E+01
   1.067902362427122E+01   1.075101173836686E+01   1.081749397623598E+01
   1.087821509415103E+01   1.093292545743654E+01   1.098138250081491E+01
   1.102335225483455E+01   1.105861093079022E+01   1.108694655486403E+01
   1.110816064041618E+01   1.112206988544456E+01   1.112850788022645E+01
   1.112732680807310E+01   1.111839911999194E+01   1.110161916189113E+01
   1.107690473081326E+01   1.104419853459162E+01   1.100346952733258E+01
   1.095471409129918E+01   1.089795703416870E+01   1.083325236933239E+01
   1.076068384598070E+01   1.068036519525738E+01   1.059244005886704E+01
   1.049708156727978E+01   1.039449153619885E+01   1.028489925234651E+01
   1.016855982298332E+01   1.004575206800958E+01   9.916775939094322E+00
   9.781949457119619E+00   9.641605167379449E+00   9.496086121468998E+00
   9.345741405655719E+00   9.190921247703862E+00   9.031971747557211E+00
   8.869240407513429E+00   8.703113790745489E+00   8.533997568590257E+00
   8.362305162243327E+00   8.188454825248439E+00   8.012866379014168E+00
   7.835957579944679E+00   7.658140096240886E+00   7.479815072036629E+00
   7.301368256341546E+00   7.123164674340885E+00   6.945542819043050E+00
   6.768808342182707E+00   6.593227224814135E+00   6.419018410331400E+00
   6.246345885920897E+00   6.075310202911433E+00   5.905939432400005E+00
   5.738179560178612E+00   5.571884334800048E+00   5.406892730238110E+00
   5.243320416006797E+00   5.081355785890020E+00   4.921180463535431E+00
   4.762968970191579E+00   4.606888417178077E+00   4.453098223776574E+00
   4.301749861140283E+00   4.152986622724340E+00   4.006943421469730E+00
   3.863746616401932E+00   3.723513851999284E+00   3.586353976896465E+00
   3.452366882595581E+00   3.321643410874368E+00   3.194265364608110E+00
   3.070305525941461E+00   2.949827676234440E+00   2.832886638590097E+00
   2.719528346181606E+00   2.609789935711979E+00   2.503699865332643E+00
   2.401278056225822E+00   2.302536056977707E+00   2.207477229787910E+00
   2.116096957482767E+00   2.028382870225908E+00   1.944315090749304E+00
   1.863866496862521E+00   1.787002999937491E+00   1.713683838011389E+00
   1.643861882101798E+00   1.577483954286681E+00   1.514491156067547E+00
   1.454819205508004E+00   1.398398781622307E+00   1.345155874479987E+00
   1.295012139493721E+00   1.247885254368600E+00   1.203689277212220E+00
   1.162335004336732E+00   1.123730326326100E+00   1.087780580994303E+00
   1.054388901922596E+00   1.023456561335803E+00   9.948833061580574E-01
   9.685676861765220E-01   9.444073733361925E-01   9.222994712884903E-01
   9.021408144194929E-01   8.838282556886463E-01   8.672589427139874E-01
   8.523305816435517E-01   8.389416884531763E-01   8.269918274068120E-01
   8.163818365054620E-01   8.070140398338856E-01   7.987924467894556E-01
   7.916229382444888E-01   7.854134397517655E-01   7.800740819527733E-01
   7.755173483897233E-01   7.716582109560368E-01   7.684142532464364E-01
   7.657057820876101E-01   7.634559275445638E-01   7.615907317069717E-01
   7.600392265649623E-01   7.587335012856261E-01   7.576087592008156E-01
   7.566033648142552E-01   7.556588811321705E-01   7.547200976170831E-01
   7.537350490595756E-01   7.526550256580323E-01   7.514345745919250E-01
   7.500314933702955E-01   7.484068152339057E-01   7.465247868871362E-01
   7.443528388341683E-01   7.418615485933433E-01   7.390245970637647E-01
   7.358187183192405E-01   7.322236431064286E-01   7.282220363264973E-01
   7.237994287826859E-01   7.189441434797100E-01   7.136472167649588E-01
   7.079023146057388E-01   7.017056443013714E-01   6.950558619336294E-01
   6.879539758637301E-01   6.804032465887793E-01   6.724090832751335E-01
   6.639789372905019E-01   6.551221930606772E-01   6.458500565805302E-01
   6.361754419122081E-01   6.261128560063083E-01   6.156782821841137E-01
   6.048890626206658E-01   5.937637801695407E-01   5.823221398705433E-01
   5.705848504812008E-01   5.585735063717717E-01   5.463104701215356E-01
   5.338187561512959E-01   5.211219157233125E-01   5.082439236352010E-01
   4.952090669287323E-01   4.820418359278152E-01   4.687668179122959E-01
   4.554085937254888E-01   4.419916376035592E-01   4.285402205039774E-01
   4.150783171982542E-01   4.016295173810255E-01   3.882169410332849E-01
   3.748631582621538E-01   3.615901138113073E-01   3.484190564924664E-01
   3.353704735763690E-01   3.224640304309013E-01   3.097185154631257E-01
   2.971517904877235E-01   2.847807466067011E-01   2.726212656619061E-01
   2.606881872979128E-01   2.489952816482837E-01   2.375552276332271E-01
   2.263795968313659E-01   2.154788428628888E-01   2.048622961958989E-01
   1.945381642625157E-01   1.845135367463658E-01   1.747943958787292E-01
   1.653856315569807E-01   1.562910610762503E-01   1.475134532436606E-01
   1.390545566242287E-01   1.309151316487764E-01   1.230949862971212E-01
   1.155930150546180E-01   1.084072408269295E-01   1.015348594868664E-01
   9.497228671838841E-02   8.871520681647274E-02   8.275862309764809E-02
   7.709690957457871E-02   7.172386354921896E-02   6.663275878272333E-02
   6.181639890647163E-02   5.726717074719061E-02   5.297709725013369E-02
   4.893788969751053E-02   4.514099893468958E-02   4.157766533396952E-02
   3.823896724473721E-02   3.511586769939441E-02   3.219925916631380E-02
   2.948000616404100E-02   2.694898557473937E-02   2.459712451922167E-02
   2.241543568056904E-02   2.039504998803944E-02   1.852724659746321E-02
   1.680348012836259E-02   1.521540514138056E-02   1.375489786204186E-02
   1.241407517819024E-02   1.118531095847106E-02   1.006124975779416E-02
   9.034817992683858E-03   8.099232684689836E-03   7.248007883509958E-03
   6.474958893105196E-03   5.774204433837831E-03   5.140166881526236E-03
   4.567570730331971E-03   4.051439430401720E-03   3.587090752121223E-03
   3.170130844099936E-03   2.796447101387686E-03   2.462200050061089E-03
   2.163814349460324E-03   1.897969075392018E-03   1.661587417098001E-03
   1.451825917904644E-03   1.266063381913022E-03   1.101889560928238E-03
   9.570937272016960E-04   8.296532286134158E-04   7.177221137865390E-04
   6.196199054283571E-04   5.338205910472666E-04   4.589418912080742E-04
   3.937348567527279E-04   3.370738380115937E-04   2.879468610314524E-04
   2.454464383079807E-04   2.087608344781363E-04   1.771658009356934E-04
   1.500167874042279E-04   1.267416331490446E-04   1.068337357362900E-04
   8.984569104875960E-05   7.538339463108366E-05   6.310059134291364E-05
   5.269385772275590E-05   4.389799937801514E-05   3.648184408585424E-05
   3.024441007927051E-05   2.501142816620057E-05   2.063219584840502E-05
   1.697674143304329E-05   1.393327622533208E-05   1.140591321857066E-05
   9.312631222643802E-06   7.583464060245057E-06   6.158895280007852E-06
   4.988439758367940E-06   4.029394560710683E-06   3.245742483198390E-06
   2.607192778297792E-06   2.088344660617420E-06   1.667960279816145E-06
   1.328334917081139E-06   1.054753205432458E-06   8.350213397075858E-07
   6.590641425065547E-07   5.185916941335150E-07   4.067735045790389E-07
   3.180607847697840E-07   2.479215681505331E-07   1.926449147625566E-07
   1.492185186602378E-07   1.152106163506396E-07   8.866440901954771E-08
   6.801041447166891E-08   5.199394808304223E-08   3.961532504458841E-08
   3.008072164160505E-08   2.276193571092620E-08   1.716355032572540E-08
   1.289623381025284E-08   9.655107294846085E-09   7.202281668851584E-09
   5.352812114680976E-09   3.963443363053916E-09   2.923625069800046E-09
   2.148366690087985E-09   1.572577086832351E-09   1.146597795694122E-09
   8.326921025188520E-10   6.022963921721002E-10   4.338769372365155E-10
   3.112655783876003E-10   2.223726194572228E-10   1.581955950875274E-10
   1.120591198954111E-10   7.903443808165595E-11   5.549810773386373E-11
   3.879793642982070E-11   2.700122231636774E-11   1.870587218319396E-11
   1.289933509565265E-11   8.853730170636360E-12   6.048243766959120E-12
   4.111975026961757E-12   2.782041677621460E-12   1.873019291519792E-12
   1.254756526296637E-12   8.363500161290503E-13   5.546263836779846E-13
   3.659054991640680E-13   2.401403037364478E-13   1.567690309954953E-13
   1.017948050871573E-13   6.574030673681311E-14   4.222297842321440E-14
   2.696788493367390E-14   1.712754883995344E-14   1.081590364445643E-14
   6.790755725903126E-15   4.238663417655065E-15   2.630039845244988E-15
   1.622124996099622E-15   9.943961770573889E-16   6.058289806459387E-16
   3.667878363308223E-16   2.206516271076027E-16   1.318772914217988E-16
   7.829432496498807E-17   4.616211256974377E-17   2.701984904420365E-17
   1.569198513832607E-17   9.033638224602028E-18   5.146735507035616E-18
   2.893486462644934E-18   1.596788374777043E-18   8.561414092458726E-19
   4.393205371399997E-19   2.012851093562890E-19   0.000000000000000E+00
   0.000000000000000E+00   0.000000000000000E+00   0.000000000000000E+00
   0.000000000000000E+00   0.000000000000000E+00   0.000000000000000E+00
   0.000000000000000E+00   0.000000000000000E+00   0.000000000000000E+00
   0.000000000000000E+00   0.000000000000000E+00   0.000000000000000E+00
   0.000000000000000E+00   0.000000000000000E+00   0.000000000000000E+00
   0.000000000000000E+00   0.000000000000000E+00   0.000000000000000E+00
   0.000000000000000E+00   0.000000000000000E+00   0.000000000000000E+00
   0.000000000000000E+00   0.000000000000000E+00   0.000000000000000E+00
   0.000000000000000E+00   0.000000000000000E+00   0.000000000000000E+00
   0.000000000000000E+00   0.000000000000000E+00   0.000000000000000E+00
   0.000000000000000E+00   0.000000000000000E+00   0.000000000000000E+00
   0.000000000000000E+00   0.000000000000000E+00   0.000000000000000E+00
   0.000000000000000E+00   0.000000000000000E+00   0.000000000000000E+00
   0.000000000000000E+00   0.000000000000000E+00   0.000000000000000E+00
   0.000000000000000E+00   0.000000000000000E+00   0.000000000000000E+00
   0.000000000000000E+00   0.000000000000000E+00   0.000000000000000E+00
   0.000000000000000E+00   0.000000000000000E+00   0.000000000000000E+00
   0.000000000000000E+00   0.000000000000000E+00   0.000000000000000E+00
   0.000000000000000E+00   0.000000000000000E+00   0.000000000000000E+00
   0.000000000000000E+00   0.000000000000000E+00   0.000000000000000E+00
   0.000000000000000E+00   0.000000000000000E+00   0.000000000000000E+00
   0.000000000000000E+00   0.000000000000000E+00   0.000000000000000E+00
   0.000000000000000E+00   0.000000000000000E+00   0.000000000000000E+00
   0.000000000000000E+00   0.000000000000000E+00   0.000000000000000E+00
   0.000000000000000E+00
  </PP_RHOATOM>
  <PP_PAW paw_data_format="2" core_energy="-259.30463053493827">
    <PP_OCCUPATIONS size="4">
   2.000000000000000E+00   2.000000000000000E+00   6.000000000000000E+00
   0.000000000000000E+00
    </PP_OCCUPATIONS>
    <PP_AE_NLCC size="1129">
   1.071562272128726E+03   1.071459367551502E+03   1.071356472856439E+03
   1.071253588042590E+03   1.071150380974775E+03   1.071046162554241E+03
   1.070941123192521E+03   1.070835235854799E+03   1.070728508922770E+03
   1.070620950462840E+03   1.070512568198463E+03   1.070403369518958E+03
   1.070293361485900E+03   1.070182550839154E+03   1.070070944002753E+03
   1.069958547090630E+03   1.069845365912159E+03   1.069731405977555E+03
   1.069616672503114E+03   1.069501170416295E+03   1.069384904360666E+03
   1.069267878700694E+03   1.069150097526395E+03   1.069031564657848E+03
   1.068912283649571E+03   1.068792257794767E+03   1.068671490129433E+03
   1.068549983436356E+03   1.068427740248967E+03   1.068304762855083E+03
   1.068181053300534E+03   1.068056613392667E+03   1.067931444703738E+03
   1.067805548574194E+03   1.067678926115838E+03   1.067551578214905E+03
   1.067423505535015E+03   1.067294708520038E+03   1.067165187396845E+03
   1.067034942177969E+03   1.066903972664179E+03   1.066772278446940E+03
   1.066639858910798E+03   1.066506713235666E+03   1.066372840399018E+03
   1.066238239178015E+03   1.066102908151525E+03   1.065966845702070E+03
   1.065830050017690E+03   1.065692519093725E+03   1.065554250734526E+03
   1.065415242555078E+03   1.065275491982556E+03   1.065134996257807E+03
   1.064993752436746E+03   1.064851757391707E+03   1.064709007812696E+03
   1.064565500208594E+03   1.064421230908290E+03   1.064276196061729E+03
   1.064130391640930E+03   1.063983813440910E+03   1.063836457080554E+03
   1.063688318003433E+03   1.063539391478543E+03   1.063389672601004E+03
   1.063239156292687E+03   1.063087837302788E+03   1.062935710208345E+03
   1.062782769414695E+03   1.062629009155887E+03   1.062474423495029E+03
   1.062319006324585E+03   1.062162751366626E+03   1.062005652173018E+03
   1.061847702125571E+03   1.061688894436127E+03   1.061529222146608E+03
   1.061368678129006E+03   1.061207255085327E+03   1.061044945547501E+03
   1.060881741877221E+03   1.060717636265756E+03   1.060552620733707E+03
   1.060386687130721E+03   1.060219827135164E+03   1.060052032253742E+03
   1.059883293821088E+03   1.059713602999297E+03   1.059542950777419E+03
   1.059371327970919E+03   1.059198725221086E+03   1.059025132994404E+03
   1.058850541581883E+03   1.058674941098337E+03   1.058498321481652E+03
   1.058320672491978E+03   1.058141983710908E+03   1.057962244540605E+03
   1.057781444202887E+03   1.057599571738293E+03   1.057416616005088E+03
   1.057232565678241E+03   1.057047409248367E+03   1.056861135020621E+03
   1.056673731113571E+03   1.056485185458020E+03   1.056295485795799E+03
   1.056104619678523E+03   1.055912574466296E+03   1.055719337326409E+03
   1.055524895231979E+03   1.055329234960556E+03   1.055132343092702E+03
   1.054934206010523E+03   1.054734809896180E+03   1.054534140730355E+03
   1.054332184290682E+03   1.054128926150148E+03   1.053924351675453E+03
   1.053718446025344E+03   1.053511194148905E+03   1.053302580783821E+03
   1.053092590454599E+03   1.052881207470760E+03   1.052668415924998E+03
   1.052454199691302E+03   1.052238542423045E+03   1.052021427551037E+03
   1.051802838281542E+03   1.051582757594272E+03   1.051361168240336E+03
   1.051138052740158E+03   1.050913393381362E+03   1.050687172216620E+03
   1.050459371061474E+03   1.050229971492120E+03   1.049998954843148E+03
   1.049766302205272E+03   1.049531994422993E+03   1.049296012092266E+03
   1.049058335558104E+03   1.048818944912158E+03   1.048577819990267E+03
   1.048334940369968E+03   1.048090285367977E+03   1.047843834037634E+03
   1.047595565166311E+03   1.047345457272797E+03   1.047093488604627E+03
   1.046839637135409E+03   1.046583880562085E+03   1.046326196302184E+03
   1.046066561491023E+03   1.045804952978878E+03   1.045541347328131E+03
   1.045275720810373E+03   1.045008049403473E+03   1.044738308788619E+03
   1.044466474347316E+03   1.044192521158362E+03   1.043916423994780E+03
   1.043638157320716E+03   1.043357695288314E+03   1.043075011734536E+03
   1.042790080177977E+03   1.042502873815610E+03   1.042213365519534E+03
   1.041921527833662E+03   1.041627332970375E+03   1.041330752807170E+03
   1.041031758883231E+03   1.040730322396002E+03   1.040426414197712E+03
   1.040120004791853E+03   1.039811064329664E+03   1.039499562606517E+03
   1.039185469058341E+03   1.038868752757958E+03   1.038549382411402E+03
   1.038227326354229E+03   1.037902552547737E+03   1.037575028575217E+03
   1.037244721638122E+03   1.036911598552223E+03   1.036575625743742E+03
   1.036236769245412E+03   1.035894994692556E+03   1.035550267319099E+03
   1.035202551953544E+03   1.034851813014952E+03   1.034498014508836E+03
   1.034141120023073E+03   1.033781092723755E+03   1.033417895351004E+03
   1.033051490214791E+03   1.032681839190671E+03   1.032308903715535E+03
   1.031932644783304E+03   1.031553022940591E+03   1.031169998282360E+03
   1.030783530447510E+03   1.030393578614475E+03   1.030000101496768E+03
   1.029603057338491E+03   1.029202403909850E+03   1.028798098502594E+03
   1.028390097925467E+03   1.027978358499617E+03   1.027562836053959E+03
   1.027143485920559E+03   1.026720262929934E+03   1.026293121406372E+03
   1.025862015163210E+03   1.025426897498073E+03   1.024987721188129E+03
   1.024544438485269E+03   1.024097001111307E+03   1.023645360253141E+03
   1.023189466557884E+03   1.022729270128001E+03   1.022264720516390E+03
   1.021795766721480E+03   1.021322357182287E+03   1.020844439773454E+03
   1.020361961800303E+03   1.019874869993818E+03   1.019383110505671E+03
   1.018886628903196E+03   1.018385370164359E+03   1.017879278672737E+03
   1.017368298212449E+03   1.016852371963111E+03   1.016331442494771E+03
   1.015805451762824E+03   1.015274341102954E+03   1.014738051226033E+03
   1.014196522213045E+03   1.013649693509999E+03   1.013097503922835E+03
   1.012539891612355E+03   1.011976794089115E+03   1.011408148208370E+03
   1.010833890164991E+03   1.010253955488399E+03   1.009668279037518E+03
   1.009076794995721E+03   1.008479436865813E+03   1.007876137465007E+03
   1.007266828919924E+03   1.006651442661625E+03   1.006029909420640E+03
   1.005402159222045E+03   1.004768121380551E+03   1.004127724495617E+03
   1.003480896446608E+03   1.002827564387973E+03   1.002167654744463E+03
   1.001501093206390E+03   1.000827804724917E+03   1.000147713507401E+03
   9.994607430127778E+02   9.987668159469946E+02   9.980658542584980E+02
   9.973577791337705E+02   9.966425109929336E+02   9.959199694854017E+02
   9.951900734856134E+02   9.944527410888182E+02   9.937078896069409E+02
   9.929554355645212E+02   9.921952946947282E+02   9.914273819354636E+02
   9.906516114255427E+02   9.898678965009721E+02   9.890761496913218E+02
   9.882762827161866E+02   9.874682064817652E+02   9.866518310775353E+02
   9.858270657730391E+02   9.849938190147965E+02   9.841519984233253E+02
   9.833015107902986E+02   9.824422620758270E+02   9.815741574058726E+02
   9.806971010698200E+02   9.798109965181686E+02   9.789157463604038E+02
   9.780112523630075E+02   9.770974154476311E+02   9.761741356894553E+02
   9.752413123156999E+02   9.742988437043376E+02   9.733466273829808E+02
   9.723845600279633E+02   9.714125374636318E+02   9.704304546618308E+02
   9.694382057416148E+02   9.684356839691711E+02   9.674227817579741E+02
   9.663993906691783E+02   9.653654014122446E+02   9.643207038458313E+02
   9.632651869789293E+02   9.621987389722682E+02   9.611212471400037E+02
   9.600325979516743E+02   9.589326770344609E+02   9.578213691757373E+02
   9.566985583259341E+02   9.555641276017179E+02   9.544179592894974E+02
   9.532599348492644E+02   9.520899349187820E+02   9.509078393181234E+02
   9.497135270545820E+02   9.485068763279490E+02   9.472877645361818E+02
   9.460560682814672E+02   9.448116633766826E+02   9.435544248522878E+02
   9.422842269636325E+02   9.410009431987087E+02   9.397044462863538E+02
   9.383946082049140E+02   9.370713001913738E+02   9.357343927509902E+02
   9.343837556674073E+02   9.330192580132855E+02   9.316407681614580E+02
   9.302481537966117E+02   9.288412819275356E+02   9.274200188999099E+02
   9.259842304096794E+02   9.245337815170199E+02   9.230685366608880E+02
   9.215883596742158E+02   9.200931137997057E+02   9.185826617062887E+02
   9.170568655062350E+02   9.155155867729273E+02   9.139586865593477E+02
   9.123860254172398E+02   9.107974634170058E+02   9.091928601683302E+02
   9.075720748415492E+02   9.059349661897976E+02   9.042813925719207E+02
   9.026112119761905E+02   9.009242820448338E+02   8.992204600993800E+02
   8.974996031668729E+02   8.957615680069229E+02   8.940062111396494E+02
   8.922333888745156E+02   8.904429573400694E+02   8.886347725146243E+02
   8.868086902578758E+02   8.849645663434837E+02   8.831022564926365E+02
   8.812216164086061E+02   8.793225018123308E+02   8.774047684790166E+02
   8.754682722757929E+02   8.735128692004391E+02   8.715384154211841E+02
   8.695447673176252E+02   8.675317815227498E+02   8.654993149661025E+02
   8.634472249181016E+02   8.613753690355268E+02   8.592836054082040E+02
   8.571717926068817E+02   8.550397897323397E+02   8.528874564657336E+02
   8.507146531201880E+02   8.485212406936802E+02   8.463070809231926E+02
   8.440720363401798E+02   8.418159703273551E+02   8.395387471768063E+02
   8.372402321494735E+02   8.349202915359840E+02   8.325787927188679E+02
   8.302156042361711E+02   8.278305958464763E+02   8.254236385953368E+02
   8.229946048831629E+02   8.205433685345334E+02   8.180698048689776E+02
   8.155737907732239E+02   8.130552047749238E+02   8.105139271178742E+02
   8.079498398387279E+02   8.053628268452200E+02   8.027527739959025E+02
   8.001195691814006E+02   7.974631024072037E+02   7.947832658779822E+02
   7.920799540834423E+02   7.893530638857213E+02   7.866024946083226E+02
   7.838281481265997E+02   7.810299289597758E+02   7.782077443645099E+02
   7.753615044299995E+02   7.724911221746128E+02   7.695965136440659E+02
   7.666775980111069E+02   7.637342976767209E+02   7.607665383728445E+02
   7.577742492665629E+02   7.547573630658044E+02   7.517158161264831E+02
   7.486495485611069E+02   7.455585043488056E+02   7.424426314467746E+02
   7.393018819031129E+02   7.361362119710183E+02   7.329455822243245E+02
   7.297299576743496E+02   7.264893078880185E+02   7.232236071072414E+02
   7.199328343694940E+02   7.166169736295745E+02   7.132760138824952E+02
   7.099099492874528E+02   7.065187792928604E+02   7.031025087623581E+02
   6.996611481017744E+02   6.961947133869774E+02   6.927032264925510E+02
   6.891867152212582E+02   6.856452134341949E+02   6.820787611815971E+02
   6.784874048342182E+02   6.748711972151966E+02   6.712301977323625E+02
   6.675644725108693E+02   6.638740945260945E+02   6.601591437367064E+02
   6.564197072178114E+02   6.526558792940955E+02   6.488677616728398E+02
   6.450554635767317E+02   6.412191018763516E+02   6.373588012222247E+02
   6.334746941763385E+02   6.295669213429883E+02   6.256356314988370E+02
   6.216809817220731E+02   6.177031375205116E+02   6.137022729585385E+02
   6.096785707827208E+02   6.056322225459709E+02   6.015634287301023E+02
   5.974723988666228E+02   5.933593516556294E+02   5.892245150826164E+02
   5.850681265330547E+02   5.808904329045671E+02   5.766916907165196E+02
   5.724721662168716E+02   5.682321354860801E+02   5.639718845378900E+02
   5.596917094168198E+02   5.553919162921384E+02   5.510728215481589E+02
   5.467347518706246E+02   5.423780443290005E+02   5.380030464544582E+02
   5.336101163133364E+02   5.291996225758843E+02   5.247719445800407E+02
   5.203274723900578E+02   5.158666068497262E+02   5.113897596299884E+02
   5.068973532707123E+02   5.023898212163859E+02   4.978676078455134E+02
   4.933311684934727E+02   4.887809694685992E+02   4.842174880612695E+02
   4.796412125457344E+02   4.750526421744763E+02   4.704522871648481E+02
   4.658406686777542E+02   4.612183187881494E+02   4.565857804471021E+02
   4.519436074352039E+02   4.472923643070811E+02   4.426326263267836E+02
   4.379649793938268E+02   4.332900199596506E+02   4.286083549342841E+02
   4.239206015829941E+02   4.192273874127028E+02   4.145293500479752E+02
   4.098271370963617E+02   4.051214060029084E+02   4.004128238936433E+02
   3.957020674078519E+02   3.909898225189783E+02   3.862767843439721E+02
   3.815636569409342E+02   3.768511530949119E+02   3.721399940917005E+02
   3.674309094795413E+02   3.627246368185802E+02   3.580219214180043E+02
   3.533235160607580E+02   3.486301807157636E+02   3.439426822375958E+02
   3.392617940535484E+02   3.345882958380807E+02   3.299229731746198E+02
   3.252666172047233E+02   3.206200242646358E+02   3.159839955092646E+02
   3.113593365236448E+02   3.067468569219709E+02   3.021473699342939E+02
   2.975616919810106E+02   2.929906422352819E+02   2.884350421735497E+02
   2.838957151143427E+02   2.793734857455786E+02   2.748691796406071E+02
   2.703836227632455E+02   2.659176409621003E+02   2.614720594544826E+02
   2.570477023002555E+02   2.526453918659791E+02   2.482659482797402E+02
   2.439101888770843E+02   2.395789276384961E+02   2.352729746188954E+02
   2.309931353696522E+02   2.267402103536400E+02   2.225149943538857E+02
   2.183182758763914E+02   2.141508365477385E+02   2.100134505081077E+02
   2.059068838003718E+02   2.018318937559525E+02   1.977892283781489E+02
   1.937796257236782E+02   1.898038132831912E+02   1.858625073615446E+02
   1.819564124586431E+02   1.780862206516812E+02   1.742526109796368E+02
   1.704562488308931E+02   1.666977853348759E+02   1.629778567586210E+02
   1.592970839091969E+02   1.556560715429255E+02   1.520554077823583E+02
   1.484956635419739E+02   1.449773919635783E+02   1.415011278623952E+02
   1.380673871848395E+02   1.346766664789786E+02   1.313294423786782E+02
   1.280261711024412E+02   1.247672879679413E+02   1.215532069232482E+02
   1.183843200957432E+02   1.152609973597033E+02   1.121835859235349E+02
   1.091524099376145E+02   1.061677701236834E+02   1.032299434267256E+02
   1.003391826902311E+02   9.749571635573264E+01   9.469974818746860E+01
   9.195145702299968E+01   8.925099655057879E+01   8.659849511402948E+01
   8.399405554586090E+01   8.143775502930136E+01   7.892964498989068E+01
   7.646975101722930E+01   7.405807281742860E+01   7.169458419676150E+01
   6.937923307695604E+01   6.711194154252021E+01   6.489260592042959E+01
   6.272109689244554E+01   6.059725964027368E+01   5.852091402370548E+01
   5.649185479181948E+01   5.450985182725289E+01   5.257465042348085E+01
   5.068597159497352E+01   4.884351242002598E+01   4.704694641598334E+01
   4.529592394651018E+01   4.359007266047552E+01   4.192899796195172E+01
   4.031228351074826E+01   3.873949175282568E+01   3.721016447985958E+01
   3.572382341714804E+01   3.427997083898287E+01   3.287809021052959E+01
   3.151764685518958E+01   3.019808864634666E+01   2.891884672232976E+01
   2.767933622335759E+01   2.647895704916492E+01   2.531709463594743E+01
   2.419312075120338E+01   2.310639430499167E+01   2.205626217607409E+01
   2.104206005135904E+01   2.006311327701761E+01   1.911873771960173E+01
   1.820824063545578E+01   1.733092154626159E+01   1.648607312107211E+01
   1.567298205873015E+01   1.489092997323197E+01   1.413919427799683E+01
   1.341704906766048E+01   1.272376599556012E+01   1.205861514508243E+01
   1.142086589305697E+01   1.080978776339275E+01   1.022465126917883E+01
   9.664728741497729E+00   9.129295143235076E+00   8.617628866210051E+00
   8.129012509997317E+00   7.662733640864545E+00   7.218085529308278E+00
   6.794367864735243E+00   6.390887445906949E+00   6.006958845840436E+00
   5.641905049939383E+00   5.295058066215260E+00   4.965759506548430E+00
   4.653361138033968E+00   4.357225403554523E+00   4.076725910825105E+00
   3.811247889258456E+00   3.560188614106759E+00   3.322957797444563E+00
   3.098977945667101E+00   2.887684683289696E+00   2.688527042944253E+00
   2.500967721579433E+00   2.324483302980756E+00   2.158564446834131E+00
   2.002716044662399E+00   1.856457343067084E+00   1.719322034807088E+00
   1.590858318342330E+00   1.470628926561566E+00   1.358211125501160E+00
   1.253196683943467E+00   1.155191814860325E+00   1.063817089738564E+00
   9.787073268895168E-01   8.995114549040557E-01   8.258923524675913E-01
   7.575266657961823E-01   6.941046049952417E-01   6.353297206759182E-01
   5.809186621916296E-01   5.306009188778555E-01   4.841185456926504E-01
   4.412258746633525E-01   4.016892135466311E-01   3.652865331047702E-01
   3.318071443908158E-01   3.010513674192903E-01   2.728301925778459E-01
   2.469649361085588E-01   2.232868909561002E-01   2.016369742437965E-01
   1.818653725980995E-01   1.638311864975143E-01   1.474020747738416E-01
   1.324539003422039E-01   1.188703781819521E-01   1.065427265336751E-01
   9.536932221851756E-02   8.525536092520820E-02   7.611252324807052E-02
   6.785864719614478E-02   6.041740782983868E-02   5.371800461759809E-02
   4.769485704130386E-02   4.228730891585138E-02   3.743934182595403E-02
   3.309929802198823E-02   2.921961305696134E-02   2.575655838870814E-02
   2.266999411549680E-02   1.992313195955931E-02   1.748230856188979E-02
   1.531676910315720E-02   1.339846121990881E-02   1.170183914254619E-02
   1.020367794192465E-02   8.882897734949330E-03   7.720397666263548E-03
   6.698899453067926E-03   5.802800253278952E-03   5.018034593599652E-03
   4.331945073589558E-03   3.733161544415046E-03   3.211488446542759E-03
   2.757799979104178E-03   2.363942764881526E-03   2.022645668708596E-03
   1.727436423394918E-03   1.472564715907509E-03   1.252931387315862E-03
   1.064023402748436E-03   9.018542521470384E-04   7.629094487607472E-04
   6.440967999144064E-04   5.427011334426815E-04   4.563431731250467E-04
   3.829422673219828E-04   3.206826866356108E-04   2.679832186436187E-04
   2.234698004370445E-04   1.859509426919490E-04   1.543957121941486E-04
   1.279140529967336E-04   1.057392396142214E-04   8.721226874795619E-05
   7.176800890815271E-05   5.892293987305185E-05   4.826432613948132E-05
   3.944068031626384E-05   3.215338374667298E-05   2.614934248186700E-05
   2.121456703601274E-05   1.716857411569973E-05   1.385951771869075E-05
   1.115996563425802E-05   8.963245449522988E-06   7.180291678952465E-06
   5.736932597735335E-06   4.571561788469689E-06   3.633145322122597E-06
   2.879520909045180E-06   2.275950296611313E-06   1.793890681145155E-06
   1.409954968739415E-06   1.105034388612471E-06   8.635602604106647E-07
   6.728846699235288E-07   5.227624423107575E-07   4.049191438222316E-07
   3.126919170048332E-07   2.407317844259098E-07   1.847576647685277E-07
   1.413537543954562E-07   1.078031566958765E-07   8.195171293916564E-08
   6.209690864268200E-08   4.689753786520041E-08   3.530048914316958E-08
   2.648160427279062E-08   1.979806662023113E-08   1.475020261701255E-08
   1.095094129252467E-08   8.101481854616768E-09   5.971975879904111E-09
   4.386245465978490E-09   3.209737826465371E-09   2.340065612635808E-09
   1.699605368432600E-09   1.229727995928439E-09   8.863183982890355E-10
   6.363095583530161E-10   4.550117497734240E-10   3.240625297974897E-10
   2.298594607821477E-10   1.623666949742016E-10   1.142099278251752E-10
   7.999285866570915E-11   5.578309028490033E-11   3.872709157288916E-11
   2.676304908143747E-11   1.840764274313185E-11   1.259840418971022E-11
   8.577682314905771E-12   5.807615466850064E-12   3.908106055491650E-12
   2.611781658639919E-12   1.731442096596981E-12   1.136641997648831E-12
   7.369233591232000E-13   4.698816393545653E-13   2.926580791457047E-13
   1.765037165158691E-13   9.964269526132890E-14   0.000000000000000E+00
   0.000000000000000E+00   0.000000000000000E+00   0.000000000000000E+00
   0.000000000000000E+00   0.000000000000000E+00   0.000000000000000E+00
   0.000000000000000E+00   0.000000000000000E+00   0.000000000000000E+00
   0.000000000000000E+00   0.000000000000000E+00   0.000000000000000E+00
   0.000000000000000E+00   0.000000000000000E+00   0.000000000000000E+00
   0.000000000000000E+00   0.000000000000000E+00   0.000000000000000E+00
   0.000000000000000E+00   0.000000000000000E+00   0.000000000000000E+00
   0.000000000000000E+00   0.000000000000000E+00   0.000000000000000E+00
   0.000000000000000E+00   0.000000000000000E+00   0.000000000000000E+00
   0.000000000000000E+00   0.000000000000000E+00   0.000000000000000E+00
   0.000000000000000E+00   0.000000000000000E+00   0.000000000000000E+00
   0.000000000000000E+00   0.000000000000000E+00   0.000000000000000E+00
   0.000000000000000E+00   0.000000000000000E+00   0.000000000000000E+00
   0.000000000000000E+00   0.000000000000000E+00   0.000000000000000E+00
   0.000000000000000E+00   0.000000000000000E+00   0.000000000000000E+00
   0.000000000000000E+00   0.000000000000000E+00   0.000000000000000E+00
   0.000000000000000E+00   0.000000000000000E+00   0.000000000000000E+00
   0.000000000000000E+00   0.000000000000000E+00   0.000000000000000E+00
   0.000000000000000E+00   0.000000000000000E+00   0.000000000000000E+00
   0.000000000000000E+00   0.000000000000000E+00   0.000000000000000E+00
   0.000000000000000E+00   0.000000000000000E+00   0.000000000000000E+00
   0.000000000000000E+00   0.000000000000000E+00   0.000000000000000E+00
   0.000000000000000E+00   0.000000000000000E+00   0.000000000000000E+00
   0.000000000000000E+00   0.000000000000000E+00   0.000000000000000E+00
   0.000000000000000E+00   0.000000000000000E+00   0.000000000000000E+00
   0.000000000000000E+00   0.000000000000000E+00   0.000000000000000E+00
   0.000000000000000E+00   0.000000000000000E+00   0.000000000000000E+00
   0.000000000000000E+00   0.000000000000000E+00   0.000000000000000E+00
   0.000000000000000E+00   0.000000000000000E+00   0.000000000000000E+00
   0.000000000000000E+00   0.000000000000000E+00   0.000000000000000E+00
   0.000000000000000E+00   0.000000000000000E+00   0.000000000000000E+00
   0.000000000000000E+00   0.000000000000000E+00   0.000000000000000E+00
   0.000000000000000E+00   0.000000000000000E+00   0.000000000000000E+00
   0.000000000000000E+00   0.000000000000000E+00   0.000000000000000E+00
   0.000000000000000E+00   0.000000000000000E+00   0.000000000000000E+00
   0.000000000000000E+00   0.000000000000000E+00   0.000000000000000E+00
   0.000000000000000E+00   0.000000000000000E+00   0.000000000000000E+00
   0.000000000000000E+00   0.000000000000000E+00   0.000000000000000E+00
   0.000000000000000E+00   0.000000000000000E+00   0.000000000000000E+00
   0.000000000000000E+00   0.000000000000000E+00   0.000000000000000E+00
   0.000000000000000E+00   0.000000000000000E+00   0.000000000000000E+00
   0.000000000000000E+00   0.000000000000000E+00   0.000000000000000E+00
   0.000000000000000E+00   0.000000000000000E+00   0.000000000000000E+00
   0.000000000000000E+00   0.000000000000000E+00   0.000000000000000E+00
   0.000000000000000E+00   0.000000000000000E+00   0.000000000000000E+00
   0.000000000000000E+00   0.000000000000000E+00   0.000000000000000E+00
   0.000000000000000E+00   0.000000000000000E+00   0.000000000000000E+00
   0.000000000000000E+00   0.000000000000000E+00   0.000000000000000E+00
   0.000000000000000E+00   0.000000000000000E+00   0.000000000000000E+00
   0.000000000000000E+00   0.000000000000000E+00   0.000000000000000E+00
   0.000000000000000E+00   0.000000000000000E+00   0.000000000000000E+00
   0.000000000000000E+00   0.000000000000000E+00   0.000000000000000E+00
   0.000000000000000E+00   0.000000000000000E+00   0.000000000000000E+00
   0.000000000000000E+00   0.000000000000000E+00   0.000000000000000E+00
   0.000000000000000E+00   0.000000000000000E+00   0.000000000000000E+00
   0.000000000000000E+00   0.000000000000000E+00   0.000000000000000E+00
   0.000000000000000E+00   0.000000000000000E+00   0.000000000000000E+00
   0.000000000000000E+00   0.000000000000000E+00   0.000000000000000E+00
   0.000000000000000E+00   0.000000000000000E+00   0.000000000000000E+00
   0.000000000000000E+00   0.000000000000000E+00   0.000000000000000E+00
   0.000000000000000E+00   0.000000000000000E+00   0.000000000000000E+00
   0.000000000000000E+00   0.000000000000000E+00   0.000000000000000E+00
   0.000000000000000E+00   0.000000000000000E+00   0.000000000000000E+00
   0.000000000000000E+00   0.000000000000000E+00   0.000000000000000E+00
   0.000000000000000E+00   0.000000000000000E+00   0.000000000000000E+00
   0.000000000000000E+00   0.000000000000000E+00   0.000000000000000E+00
   0.000000000000000E+00   0.000000000000000E+00   0.000000000000000E+00
   0.000000000000000E+00   0.000000000000000E+00   0.000000000000000E+00
   0.000000000000000E+00   0.000000000000000E+00   0.000000000000000E+00
   0.000000000000000E+00   0.000000000000000E+00   0.000000000000000E+00
   0.000000000000000E+00   0.000000000000000E+00   0.000000000000000E+00
   0.000000000000000E+00   0.000000000000000E+00   0.000000000000000E+00
   0.000000000000000E+00   0.000000000000000E+00   0.000000000000000E+00
   0.000000000000000E+00   0.000000000000000E+00   0.000000000000000E+00
   0.000000000000000E+00   0.000000000000000E+00   0.000000000000000E+00
   0.000000000000000E+00   0.000000000000000E+00   0.000000000000000E+00
   0.000000000000000E+00   0.000000000000000E+00   0.000000000000000E+00
   0.000000000000000E+00   0.000000000000000E+00   0.000000000000000E+00
   0.000000000000000E+00   0.000000000000000E+00   0.000000000000000E+00
   0.000000000000000E+00   0.000000000000000E+00   0.000000000000000E+00
   0.000000000000000E+00   0.000000000000000E+00   0.000000000000000E+00
   0.000000000000000E+00   0.000000000000000E+00   0.000000000000000E+00
   0.000000000000000E+00   0.000000000000000E+00   0.000000000000000E+00
   0.000000000000000E+00   0.000000000000000E+00   0.000000000000000E+00
   0.000000000000000E+00   0.000000000000000E+00   0.000000000000000E+00
   0.000000000000000E+00   0.000000000000000E+00   0.000000000000000E+00
   0.000000000000000E+00   0.000000000000000E+00   0.000000000000000E+00
   0.000000000000000E+00   0.000000000000000E+00   0.000000000000000E+00
   0.000000000000000E+00   0.000000000000000E+00   0.000000000000000E+00
   0.000000000000000E+00   0.000000000000000E+00   0.000000000000000E+00
   0.000000000000000E+00   0.000000000000000E+00   0.000000000000000E+00
   0.000000000000000E+00   0.000000000000000E+00   0.000000000000000E+00
   0.000000000000000E+00   0.000000000000000E+00   0.000000000000000E+00
   0.000000000000000E+00   0.000000000000000E+00   0.000000000000000E+00
   0.000000000000000E+00   0.000000000000000E+00   0.000000000000000E+00
   0.000000000000000E+00   0.000000000000000E+00   0.000000000000000E+00
   0.000000000000000E+00   0.000000000000000E+00   0.000000000000000E+00
   0.000000000000000E+00   0.000000000000000E+00   0.000000000000000E+00
   0.000000000000000E+00   0.000000000000000E+00   0.000000000000000E+00
   0.000000000000000E+00   0.000000000000000E+00   0.000000000000000E+00
   0.000000000000000E+00   0.000000000000000E+00   0.000000000000000E+00
   0.000000000000000E+00   0.000000000000000E+00   0.000000000000000E+00
   0.000000000000000E+00   0.000000000000000E+00   0.000000000000000E+00
   0.000000000000000E+00   0.000000000000000E+00   0.000000000000000E+00
   0.000000000000000E+00   0.000000000000000E+00   0.000000000000000E+00
   0.000000000000000E+00   0.000000000000000E+00   0.000000000000000E+00
   0.000000000000000E+00   0.000000000000000E+00   0.000000000000000E+00
   0.000000000000000E+00   0.000000000000000E+00   0.000000000000000E+00
   0.000000000000000E+00
    </PP_AE_NLCC>
    <PP_AE_VLOC size="1129">
  -3.157840139795222E+05  -3.118607063670183E+05  -3.079861348644259E+05
  -3.041596940620650E+05  -3.003807860707748E+05  -2.966488204284941E+05
  -2.929632140079993E+05  -2.893233909257896E+05  -2.857287824521025E+05
  -2.821788269220513E+05  -2.786729696478623E+05  -2.752106628322045E+05
  -2.717913654825937E+05  -2.684145433268630E+05  -2.650796687296818E+05
  -2.617862206101082E+05  -2.585336843601739E+05  -2.553215517644733E+05
  -2.521493209207533E+05  -2.490164961614922E+05  -2.459225879764464E+05
  -2.428671129361684E+05  -2.398495936164671E+05  -2.368695585238116E+05
  -2.339265420216541E+05  -2.310200842576808E+05  -2.281497310919524E+05
  -2.253150340259480E+05  -2.225155501324839E+05  -2.197508419865076E+05
  -2.170204775967461E+05  -2.143240303382096E+05  -2.116610788855286E+05
  -2.090312071471216E+05  -2.064340042001796E+05  -2.038690642264584E+05
  -2.013359864488697E+05  -1.988343750688583E+05  -1.963638392045565E+05
  -1.939239928297104E+05  -1.915144547133609E+05  -1.891348483602752E+05
  -1.867848019521206E+05  -1.844639482893658E+05  -1.821719247339046E+05
  -1.799083731523941E+05  -1.776729398602955E+05  -1.754652755666100E+05
  -1.732850353193013E+05  -1.711318784513949E+05  -1.690054685277519E+05
  -1.669054732924956E+05  -1.648315646170998E+05  -1.627834184491157E+05
  -1.607607147615377E+05  -1.587631375028014E+05  -1.567903745473970E+05
  -1.548421176470998E+05  -1.529180623828078E+05  -1.510179081169713E+05
  -1.491413579466224E+05  -1.472881186569803E+05  -1.454579006756370E+05
  -1.436504180273105E+05  -1.418653882891610E+05  -1.401025325466621E+05
  -1.383615753500187E+05  -1.366422446711284E+05  -1.349442718610759E+05
  -1.332673916081575E+05  -1.316113418964226E+05  -1.299758639647371E+05
  -1.283607022663479E+05  -1.267656044289562E+05  -1.251903212152803E+05
  -1.236346064841156E+05  -1.220982171518721E+05  -1.205809131545925E+05
  -1.190824574104431E+05  -1.176026157826664E+05  -1.161411570430000E+05
  -1.146978528355440E+05  -1.132724776410825E+05  -1.118648087418433E+05
  -1.104746261866996E+05  -1.091017127568004E+05  -1.077458539316325E+05
  -1.064068378554981E+05  -1.050844553044134E+05  -1.037784996534175E+05
  -1.024887668442854E+05  -1.012150553536440E+05  -9.995716616148512E+04
  -9.871490272006593E+04  -9.748807092319922E+04  -9.627647907592366E+04
  -9.507993786455157E+04  -9.389826032708738E+04  -9.273126182401484E+04
  -9.157876000944726E+04  -9.044057480263452E+04  -8.931652835982613E+04
  -8.820644504648220E+04  -8.711015140983019E+04  -8.602747615176278E+04
  -8.495825010207201E+04  -8.390230619201649E+04  -8.285947942821597E+04
  -8.182960686687120E+04  -8.081252758830342E+04  -7.980808267181060E+04
  -7.881611517083553E+04  -7.783647008844271E+04  -7.686899435309994E+04
  -7.591353679475954E+04  -7.496994812123956E+04  -7.403808089489519E+04
  -7.311778950958163E+04  -7.220893016790294E+04  -7.131136085874352E+04
  -7.042494133507827E+04  -6.954953309205911E+04  -6.868499934537300E+04
  -6.783120500986921E+04  -6.698801667845222E+04  -6.615530260123585E+04
  -6.533293266495830E+04  -6.452077837265050E+04  -6.371871282355899E+04
  -6.292661069331687E+04  -6.214434821436216E+04  -6.137180315659828E+04
  -6.060885480829600E+04  -5.985538395723152E+04  -5.911127287205937E+04
  -5.837640528391696E+04  -5.765066636825683E+04  -5.693394272690566E+04
  -5.622612237034513E+04  -5.552709470021341E+04  -5.483675049202445E+04
  -5.415498187810059E+04  -5.348168233071858E+04  -5.281674664546458E+04
  -5.216007092479497E+04  -5.151155256180307E+04  -5.087109022418599E+04
  -5.023858383841148E+04  -4.961393457408147E+04  -4.899704482848888E+04
  -4.838781821136810E+04  -4.778615952983266E+04  -4.719197477350235E+04
  -4.660517109981270E+04  -4.602565681950907E+04  -4.545334138231960E+04
  -4.488813536280673E+04  -4.432995044639403E+04  -4.377869941556727E+04
  -4.323429613624632E+04  -4.269665554432626E+04  -4.216569363238658E+04
  -4.164132743656401E+04  -4.112347502359044E+04  -4.061205547798925E+04
  -4.010698888943336E+04  -3.960819634025831E+04  -3.911559989313169E+04
  -3.862912257887502E+04  -3.814868838443708E+04  -3.767422224101718E+04
  -3.720565001233500E+04  -3.674289848304695E+04  -3.628589534730618E+04
  -3.583456919746418E+04  -3.538884951291422E+04  -3.494866664907111E+04
  -3.451395182648996E+04  -3.408463712011916E+04  -3.366065544868651E+04
  -3.324194056421822E+04  -3.282842704168730E+04  -3.242005026879068E+04
  -3.201674643585345E+04  -3.161845252585870E+04  -3.122510630460093E+04
  -3.083664631096137E+04  -3.045301184730554E+04  -3.007414296999805E+04
  -2.969998048003710E+04  -2.933046591380419E+04  -2.896554153392914E+04
  -2.860515032026857E+04  -2.824923596099636E+04  -2.789774284380478E+04
  -2.755061604721504E+04  -2.720780133199579E+04  -2.686924513268800E+04
  -2.653489454923547E+04  -2.620469733871880E+04  -2.587860190719266E+04
  -2.555655730162406E+04  -2.523851320193071E+04  -2.492441991311864E+04
  -2.461422835751719E+04  -2.430789006711051E+04  -2.400535717596451E+04
  -2.370658241274743E+04  -2.341151909334404E+04  -2.312012111356080E+04
  -2.283234294192239E+04  -2.254813961255692E+04  -2.226746671817027E+04
  -2.199028040310743E+04  -2.171653735649962E+04  -2.144619480549737E+04
  -2.117921050858690E+04  -2.091554274898998E+04  -2.065515032814556E+04
  -2.039799255927239E+04  -2.014402926101196E+04  -1.989322075114970E+04
  -1.964552784041488E+04  -1.940091182635722E+04  -1.915933448729939E+04
  -1.892075807636516E+04  -1.868514531558113E+04  -1.845245939005215E+04
  -1.822266394220900E+04  -1.799572306612729E+04  -1.777160130191740E+04
  -1.755026363018375E+04  -1.733167546655282E+04  -1.711580265626965E+04
  -1.690261146886077E+04  -1.669206859286411E+04  -1.648414113062401E+04
  -1.627879659315071E+04  -1.607600289504429E+04  -1.587572834948095E+04
  -1.567794166326241E+04  -1.548261193192575E+04  -1.528970863491512E+04
  -1.509920163081266E+04  -1.491106115262879E+04  -1.472525780315144E+04
  -1.454176255035245E+04  -1.436054672285154E+04  -1.418158200543621E+04
  -1.400484043463773E+04  -1.383029439436168E+04  -1.365791661157300E+04
  -1.348768015203471E+04  -1.331955841609934E+04  -1.315352513455276E+04
  -1.298955436450972E+04  -1.282762048536022E+04  -1.266769819476644E+04
  -1.250976250470919E+04  -1.235378873758352E+04  -1.219975252234308E+04
  -1.204762979069203E+04  -1.189739677332440E+04  -1.174902999621033E+04
  -1.160250627692819E+04  -1.145780272104236E+04  -1.131489671852616E+04
  -1.117376594022899E+04  -1.103438833438750E+04  -1.089674212318003E+04
  -1.076080579932396E+04  -1.062655812271526E+04  -1.049397811710972E+04
  -1.036304506684563E+04  -1.023373851360687E+04  -1.010603825322657E+04
  -9.979924332530130E+03  -9.855377046217742E+03  -9.732376933785477E+03
  -9.610904776484731E+03  -9.490941594319318E+03  -9.372468643080034E+03
  -9.255467411415928E+03  -9.139919617942054E+03  -9.025807208383107E+03
  -8.913112352752556E+03  -8.801817442566869E+03  -8.691905088094220E+03
  -8.583358115637631E+03  -8.476159564851547E+03  -8.370292686092072E+03
  -8.265740937799897E+03  -8.162487983915808E+03  -8.060517691328485E+03
  -7.959814127353579E+03  -7.860361557244705E+03  -7.762144441734839E+03
  -7.665147434608545E+03  -7.569355380304368E+03  -7.474753311546791E+03
  -7.381326447007962E+03  -7.289060188998201E+03  -7.197940121185336E+03
  -7.107952006342315E+03  -7.019081784122867E+03  -6.931315568864829E+03
  -6.844639647420619E+03  -6.759040477014843E+03  -6.674504683128497E+03
  -6.591019057409307E+03  -6.508570555608258E+03  -6.427146295541652E+03
  -6.346733555078492E+03  -6.267319770152889E+03  -6.188892532801217E+03
  -6.111439589223593E+03  -6.034948837869530E+03  -5.959408327547293E+03
  -5.884806255556846E+03  -5.811130965845934E+03  -5.738370947189142E+03
  -5.666514831389531E+03  -5.595551391502694E+03  -5.525469540082816E+03
  -5.456258327450609E+03  -5.387906939982730E+03  -5.320404698422476E+03
  -5.253741056211499E+03  -5.187905597842230E+03  -5.122888037230820E+03
  -5.058678216110255E+03  -4.995266102443531E+03  -4.932641788856509E+03
  -4.870795491090221E+03  -4.809717546472510E+03  -4.749398412408585E+03
  -4.689828664890404E+03  -4.630998997024582E+03  -4.572900217578582E+03
  -4.515523249544975E+03  -4.458859128723630E+03  -4.402899002321452E+03
  -4.347634127569609E+03  -4.293055870357809E+03  -4.239155703885848E+03
  -4.185925207331573E+03  -4.133356064535702E+03  -4.081440062702887E+03
  -4.030169091118885E+03  -3.979535139883819E+03  -3.929530298661044E+03
  -3.880146755441740E+03  -3.831376795324736E+03  -3.783212799311578E+03
  -3.735647243116607E+03  -3.688672695991783E+03  -3.642281819566197E+03
  -3.596467366699973E+03  -3.551222180352453E+03  -3.506539192464473E+03
  -3.462411422854533E+03  -3.418831978128709E+03  -3.375794050604174E+03
  -3.333290917245984E+03  -3.291315938617325E+03  -3.249862557842564E+03
  -3.208924299583446E+03  -3.168494769027827E+03  -3.128567650891210E+03
  -3.089136708430485E+03  -3.050195782470128E+03  -3.011738790440452E+03
  -2.973759725427811E+03  -2.936252655236679E+03  -2.899211721463388E+03
  -2.862631138581369E+03  -2.826505193037829E+03  -2.790828242361697E+03
  -2.755594714282583E+03  -2.720799105860795E+03  -2.686435982628173E+03
  -2.652499977739627E+03  -2.618985791135186E+03  -2.585888188712592E+03
  -2.553202001510093E+03  -2.520922124899480E+03  -2.489043517789140E+03
  -2.457561201837087E+03  -2.426470260673723E+03  -2.395765839134343E+03
  -2.365443142501176E+03  -2.335497435754859E+03  -2.305924042835257E+03
  -2.276718345911470E+03  -2.247875784660968E+03  -2.219391855557645E+03
  -2.191262111168802E+03  -2.163482159460863E+03  -2.136047663113738E+03
  -2.108954338843718E+03  -2.082197956734830E+03  -2.055774339578485E+03
  -2.029679362221374E+03  -2.003908950921501E+03  -1.978459082712176E+03
  -1.953325784773983E+03  -1.928505133814558E+03  -1.903993255456070E+03
  -1.879786323630330E+03  -1.855880559981438E+03  -1.832272233275873E+03
  -1.808957658819895E+03  -1.785933197884211E+03  -1.763195257135812E+03
  -1.740740288076867E+03  -1.718564786490553E+03  -1.696665291893861E+03
  -1.675038386997114E+03  -1.653680697170273E+03  -1.632588889915810E+03
  -1.611759674348187E+03  -1.591189800679747E+03  -1.570876059713033E+03
  -1.550815282339363E+03  -1.531004339043654E+03  -1.511440139415372E+03
  -1.492119631665555E+03  -1.473039802149803E+03  -1.454197674897184E+03
  -1.435590311144969E+03  -1.417214808879152E+03  -1.399068302380568E+03
  -1.381147961776714E+03  -1.363450992599069E+03  -1.345974635345853E+03
  -1.328716165050201E+03  -1.311672890853675E+03  -1.294842155584986E+03
  -1.278221335343945E+03  -1.261807839090507E+03  -1.245599108238846E+03
  -1.229592616256457E+03  -1.213785868268133E+03  -1.198176400664818E+03
  -1.182761780717226E+03  -1.167539606194208E+03  -1.152507504985755E+03
  -1.137663134730609E+03  -1.123004182448419E+03  -1.108528364176344E+03
  -1.094233424610108E+03  -1.080117136749367E+03  -1.066177301547412E+03
  -1.052411747565069E+03  -1.038818330628822E+03  -1.025394933493011E+03
  -1.012139465506129E+03  -9.990498622811070E+02  -9.861240853695660E+02
  -9.733601219399536E+02  -9.607559844595268E+02  -9.483097103801472E+02
  -9.360193618277658E+02  -9.238830252956403E+02  -9.118988113411509E+02
  -9.000648542862075E+02  -8.883793119211907E+02  -8.768403652123583E+02
  -8.654462180127007E+02  -8.541950967761436E+02  -8.430852502751196E+02
  -8.321149493213867E+02  -8.212824864901083E+02  -8.105861758471053E+02
  -8.000243526792435E+02  -7.895953732279499E+02  -7.792976144257183E+02
  -7.691294736356842E+02  -7.590893683941158E+02  -7.491757361558319E+02
  -7.393870340425029E+02  -7.297217385937662E+02  -7.201783455211438E+02
  -7.107553694646951E+02  -7.014513437523856E+02  -6.922648201621053E+02
  -6.831943686863265E+02  -6.742385772993480E+02  -6.653960517270694E+02
  -6.566654152193011E+02  -6.480453083245204E+02  -6.395343886670771E+02
  -6.311313307268042E+02  -6.228348256209742E+02  -6.146435808885989E+02
  -6.065563202770240E+02  -5.985717835307705E+02  -5.906887261826278E+02
  -5.829059193469249E+02  -5.752221495149737E+02  -5.676362183526496E+02
  -5.601469425000737E+02  -5.527531533733746E+02  -5.454536969684890E+02
  -5.382474336669950E+02  -5.311332380439342E+02  -5.241099986775885E+02
  -5.171766179612243E+02  -5.103320119167290E+02  -5.035751100101605E+02
  -4.969048549691562E+02  -4.903202026022024E+02  -4.838201216197205E+02
  -4.774035934569767E+02  -4.710696120987725E+02  -4.648171839059040E+02
  -4.586453274433919E+02  -4.525530733104295E+02  -4.465394639720712E+02
  -4.406035535926214E+02  -4.347444078707175E+02  -4.289611038761038E+02
  -4.232527298880702E+02  -4.176183852355580E+02  -4.120571801389137E+02
  -4.065682355532890E+02  -4.011506830136781E+02  -3.958036644815808E+02
  -3.905263321933023E+02  -3.853178485098582E+02  -3.801773857685126E+02
  -3.751041261359204E+02  -3.700972614628917E+02  -3.651559931407696E+02
  -3.602795319594186E+02  -3.554670979668387E+02  -3.507179203303933E+02
  -3.460312371996660E+02  -3.414062955709426E+02  -3.368423511533341E+02
  -3.323386682365370E+02  -3.278945195602429E+02  -3.235091861852104E+02
  -3.191819573660052E+02  -3.149121304254098E+02  -3.106990106305344E+02
  -3.065419110706164E+02  -3.024401525365454E+02  -2.983930634021060E+02
  -2.943999795069638E+02  -2.904602440414080E+02  -2.865732074328607E+02
  -2.827382272341748E+02  -2.789546680137292E+02  -2.752219012473494E+02
  -2.715393052120481E+02  -2.679062648816311E+02  -2.643221718241625E+02
  -2.607864241013177E+02  -2.572984261696358E+02  -2.538575887836911E+02
  -2.504633289012052E+02  -2.471150695901036E+02  -2.438122399375459E+02
  -2.405542749609397E+02  -2.373406155209518E+02  -2.341707082365398E+02
  -2.310440054020038E+02  -2.279599649060911E+02  -2.249180501531470E+02
  -2.219177299863360E+02  -2.189584786129397E+02  -2.160397755317402E+02
  -2.131611054624992E+02  -2.103219582775351E+02  -2.075218289354098E+02
  -2.047602174167226E+02  -2.020366286620178E+02  -1.993505725118016E+02
  -1.967015636486733E+02  -1.940891215415574E+02  -1.915127703920401E+02
  -1.889720390827981E+02  -1.864664611281084E+02  -1.839955746264303E+02
  -1.815589222150384E+02  -1.791560510266986E+02  -1.767865126483558E+02
  -1.744498630818238E+02  -1.721456627064355E+02  -1.698734762436438E+02
  -1.676328727235282E+02  -1.654234254531793E+02  -1.632447119869252E+02
  -1.610963140983578E+02  -1.589778177541206E+02  -1.568888130894067E+02
  -1.548288943851270E+02  -1.527976600466912E+02  -1.507947125843486E+02
  -1.488196585950395E+02  -1.468721087456848E+02  -1.449516777578662E+02
  -1.430579843938201E+02  -1.411906514436879E+02  -1.393493057139454E+02
  -1.375335780169440E+02  -1.357431031614893E+02  -1.339775199443781E+02
  -1.322364711428186E+02  -1.305196035076519E+02  -1.288265677572950E+02
  -1.271570185723195E+02  -1.255106145905845E+02  -1.238870184028372E+02
  -1.222858965486931E+02  -1.207069195129127E+02  -1.191497617218838E+02
  -1.176141015402230E+02  -1.160996212674073E+02  -1.146060071343614E+02
  -1.131329492998842E+02  -1.116801418468611E+02  -1.102472827781593E+02
  -1.088340740121268E+02  -1.074402213776152E+02  -1.060654346084394E+02
  -1.047094273372081E+02  -1.033719170884361E+02  -1.020526252708769E+02
  -1.007512771689976E+02  -9.946760193353299E+01  -9.820133257105645E+01
  -9.695220593250448E+01  -9.571996270059927E+01  -9.450434737612197E+01
  -9.330510826298121E+01  -9.212199745204070E+01  -9.095477080366281E+01
  -8.980318792893436E+01  -8.866701216954858E+01  -8.754601057631328E+01
  -8.643995388627421E+01  -8.534861649842934E+01  -8.427177644803442E+01
  -8.320921537949093E+01  -8.216071851781869E+01  -8.112607463872115E+01
  -8.010507603725388E+01  -7.909751849511349E+01  -7.810320124657090E+01
  -7.712192694307026E+01  -7.615350161653370E+01  -7.519773464139924E+01
  -7.425443869543889E+01  -7.332342971940035E+01  -7.240452687551836E+01
  -7.149755250495427E+01  -7.060233208421391E+01  -6.971869418060953E+01
  -6.884647040682587E+01  -6.798549537465395E+01  -6.713560664796682E+01
  -6.629664469500179E+01  -6.546845284002457E+01  -6.465087721444930E+01
  -6.384376670748750E+01  -6.304697291640558E+01  -6.226035009646263E+01
  -6.148375511061097E+01  -6.071704737903259E+01  -5.996008882858798E+01
  -5.921274384225664E+01  -5.847487920863896E+01  -5.774636407159772E+01
  -5.702706988010848E+01  -5.631687033838866E+01  -5.561564135637553E+01
  -5.492326100061582E+01  -5.423960944563226E+01  -5.356456892582620E+01
  -5.289802368797234E+01  -5.223985994436227E+01  -5.158996582664452E+01
  -5.094823134041030E+01  -5.031454832056764E+01  -4.968881038754368E+01
  -4.907091290435250E+01  -4.846075293455901E+01  -4.785822920116928E+01
  -4.726324204647209E+01  -4.667569339285041E+01  -4.609548670458402E+01
  -4.552252695065306E+01  -4.495672056855577E+01  -4.439797542914506E+01
  -4.384620080248722E+01  -4.330130732474414E+01  -4.276320696607396E+01
  -4.223181299954535E+01  -4.170703997105649E+01  -4.118880367024554E+01
  -4.067702110238127E+01  -4.017161046121476E+01  -3.967249110277618E+01
  -3.917958352009513E+01  -3.869280931882261E+01  -3.821209119373243E+01
  -3.773735290607571E+01  -3.726851926176437E+01  -3.680551609035626E+01
  -3.634827022481380E+01  -3.589670948201027E+01  -3.545076264395319E+01
  -3.501035943969760E+01  -3.457543052792118E+01  -3.414590748013076E+01
  -3.372172276447468E+01  -3.330280973013032E+01  -3.288910259224146E+01
  -3.248053641737800E+01  -3.207704710949066E+01  -3.167857139633677E+01
  -3.128504681635142E+01  -3.089641170594007E+01  -3.051260518717012E+01
  -3.013356715583863E+01  -2.975923826989577E+01  -2.938955993820325E+01
  -2.902447430960879E+01  -2.866392426231899E+01  -2.830785339355200E+01
  -2.795620600945564E+01  -2.760892711527401E+01  -2.726596240574948E+01
  -2.692725825574642E+01  -2.659276171108334E+01  -2.626242047956354E+01
  -2.593618292219137E+01  -2.561399804456589E+01  -2.529581548844190E+01
  -2.498158552344930E+01  -2.467125903896400E+01  -2.436478753612213E+01
  -2.406212311997140E+01  -2.376321849175370E+01  -2.346802694131227E+01
  -2.317650233961979E+01  -2.288859913142132E+01  -2.260427232798885E+01
  -2.232347749998293E+01  -2.204617077041761E+01  -2.177230880772624E+01
  -2.150184881892407E+01  -2.123474854286566E+01  -2.097096624359439E+01
  -2.071046070378128E+01  -2.045319121825176E+01  -2.019911758759754E+01
  -1.994820011187246E+01  -1.970039958437030E+01  -1.945567728548269E+01
  -1.921399497663626E+01  -1.897531489430741E+01  -1.873959974464198E+01
  -1.850681269496814E+01  -1.827691737331815E+01  -1.804987785753998E+01
  -1.782565867216975E+01  -1.760422478246454E+01  -1.738554158889830E+01
  -1.716957492175379E+01  -1.695629103578190E+01  -1.674565660492735E+01
  -1.653763871712070E+01  -1.633220486913459E+01  -1.612932296150451E+01
  -1.592896129351278E+01  -1.573108855823442E+01  -1.553567383764541E+01
  -1.534268659779105E+01  -1.515209668401491E+01  -1.496387431624694E+01
  -1.477799008434993E+01  -1.459441494352428E+01  -1.441312020976946E+01
  -1.423407755540214E+01  -1.405725900463009E+01  -1.388263692918087E+01
  -1.371018404398520E+01  -1.353987340291371E+01  -1.337167839456696E+01
  -1.320557273811767E+01  -1.304153047920465E+01  -1.287952598587789E+01
  -1.271953394459386E+01  -1.256152935626062E+01  -1.240548753233227E+01
  -1.225138409095137E+01  -1.209919495313980E+01  -1.194889633903629E+01
  -1.180046476418106E+01  -1.165387703584621E+01  -1.150911024941167E+01
  -1.136614178478611E+01  -1.122494930287206E+01  -1.108551074207508E+01
  -1.094780431485598E+01  -1.081180850432607E+01  -1.067750206089098E+01
  -1.054486399892057E+01  -1.041387359344737E+01  -1.028451037696543E+01
  -1.015675413622018E+01  -1.003058490904881E+01  -9.905982981261227E+00
  -9.782928883559528E+00  -9.661403388495957E+00  -9.541387507468412E+00
  -9.422862487753644E+00  -9.305809809577060E+00  -9.190211183219127E+00
  -9.076048546157752E+00  -8.963304060245960E+00  -8.851960108924926E+00
  -8.741999294471375E+00  -8.633404435279314E+00  -8.526158563175535E+00
  -8.420244920768324E+00  -8.315646958829266E+00  -8.212348333707411E+00
  -8.110332904775650E+00  -8.009584731908834E+00  -7.910088072993034E+00
  -7.811827381465999E+00  -7.714787303887892E+00  -7.618952677542382E+00
  -7.524308528067510E+00  -7.430840067115830E+00  -7.338532690043866E+00
  -7.247371973629999E+00  -7.157343673820898E+00  -7.068433723505883E+00
  -6.980628230318859E+00  -6.893913474467700E+00  -6.808275906590455E+00
  -6.723702145638223E+00  -6.640178976784456E+00  -6.557693349359982E+00
  -6.476232374813931E+00  -6.395783324699800E+00  -6.316333628686646E+00
  -6.237870872594973E+00  -6.160382796456931E+00  -6.083857292600750E+00
  -6.008282403758824E+00  -5.933646321199388E+00  -5.859937382881427E+00
  -5.787144071632362E+00  -5.715255013348575E+00  -5.644258975218083E+00
  -5.574144863965429E+00  -5.504901724118355E+00  -5.436518736295921E+00
  -5.368985215518014E+00  -5.302290609535738E+00  -5.236424497182602E+00
  -5.171376586746243E+00  -5.107136714360216E+00  -5.043694842415950E+00
  -4.981041057994282E+00  -4.919165571316213E+00  -4.858058714214244E+00
  -4.797710938620641E+00  -4.738112815075919E+00  -4.679255031255392E+00
  -4.621128390514113E+00  -4.563723810449889E+00  -4.507032321484060E+00
  -4.451045065460049E+00  -4.395753294259156E+00  -4.341148368433680E+00
  -4.287221755856980E+00  -4.233965030390253E+00  -4.181369870565963E+00
  -4.129428058287544E+00  -4.078131477545292E+00  -4.027472113148248E+00
  -3.977442049471730E+00  -3.928033469220541E+00  -3.879238652207452E+00
  -3.831049974146901E+00  -3.783459905463697E+00  -3.736461010116447E+00
  -3.690045944435704E+00  -3.644207455976439E+00  -3.598938382384854E+00
  -3.554231650279254E+00  -3.510080274144765E+00  -3.466477355241873E+00
  -3.423416080528438E+00  -3.380889721595147E+00  -3.338891633614212E+00
  -3.297415254301045E+00  -3.256454102888943E+00  -3.216001779116398E+00
  -3.176051962227069E+00  -3.136598409982171E+00  -3.097634957685058E+00
  -3.059155517218036E+00  -3.021154076091039E+00  -2.983624696502181E+00
  -2.946561514409985E+00  -2.909958738617078E+00  -2.873810649865352E+00
  -2.838111599942277E+00  -2.802856010798391E+00  -2.768038373675723E+00
  -2.733653248247015E+00  -2.699695261765704E+00  -2.666159108226390E+00
  -2.633039547535779E+00  -2.600331404693932E+00  -2.568029568985632E+00
  -2.536128993181868E+00  -2.504624692751166E+00  -2.473511745080773E+00
  -2.442785288707501E+00  -2.412440522558096E+00  -2.382472705199099E+00
  -2.352877154095963E+00  -2.323649244881421E+00  -2.294784410632925E+00
  -2.266278141159089E+00  -2.238125982294919E+00  -2.210323535205875E+00
  -2.182866455700548E+00  -2.155750453551900E+00  -2.128971291826879E+00
  -2.102524786224431E+00  -2.076406804421678E+00  -2.050613265428251E+00
  -2.025140138948649E+00  -1.999983444752476E+00  -1.975139252052562E+00
  -1.950603678890748E+00  -1.926372891531345E+00  -1.902443103862118E+00
  -1.878810576802685E+00  -1.855471617720305E+00  -1.832422579852888E+00
  -1.809659861739184E+00  -1.787179906656065E+00  -1.764979202062748E+00
  -1.743054279051974E+00  -1.721401711807924E+00  -1.700018117070880E+00
  -1.678900153608470E+00  -1.658044521693315E+00  -1.637447962586970E+00
  -1.617107258029702E+00  -1.597019229735595E+00  -1.577180738891771E+00
  -1.557588685659338E+00  -1.538240008671248E+00  -1.519131684516691E+00
  -1.500260727190114E+00  -1.481624187457442E+00  -1.463219152036187E+00
  -1.445042742362445E+00  -1.427092112440731E+00  -1.409364444648053E+00
  -1.391856940941608E+00  -1.374566803654338E+00  -1.357492049147422E+00
  -1.340629012572644E+00  -1.323975451982031E+00  -1.307528765224141E+00
  -1.291286382467449E+00  -1.275245751960126E+00  -1.259404396269503E+00
  -1.243759824969632E+00  -1.228309593567186E+00  -1.213051281196802E+00
  -1.197982545810899E+00  -1.183100967082777E+00  -1.168404250329758E+00
  -1.153890099157814E+00  -1.139556245699204E+00  -1.125400450258144E+00
  -1.111420500960833E+00  -1.097614213409849E+00  -1.083979430342844E+00
  -1.070514017692007E+00  -1.057215878990090E+00  -1.044082932420192E+00
  -1.031113125932688E+00  -1.018304432968531E+00  -1.005654852144222E+00
  -9.931624069365828E-01  -9.808251453756320E-01  -9.686411397391487E-01
  -9.566084862514674E-01  -9.447253047859966E-01  -9.329897385714585E-01
  -9.213999539017551E-01  -9.099541398494498E-01  -8.986505079828140E-01
  -8.874872920863677E-01  -8.764627478849182E-01  -8.655751527710035E-01
  -8.548228055357342E-01  -8.442040261029817E-01  -8.337171552668525E-01
  -8.233605544324466E-01  -8.131326053598108E-01  -8.030317099110920E-01
  -7.930562898008295E-01  -7.832047863493325E-01  -7.734756602391490E-01
  -7.638673912745286E-01  -7.543784781438948E-01  -7.450074381852684E-01
  -7.357528071545870E-01  -7.266131389969259E-01  -7.175870056205395E-01
  -7.086729966737221E-01  -6.998697193244430E-01  -6.911757980427029E-01
  -6.825898743856166E-01  -6.741106067851429E-01  -6.657366703384666E-01
  -6.574667566009837E-01  -6.492995733818450E-01  -6.412338445420589E-01
  -6.332683097950825E-01  -6.254017245099053E-01  -6.176328595165730E-01
  -6.099605009141232E-01  -6.023834498809165E-01  -5.949005224873130E-01
  -5.875105495106806E-01  -5.802123762527103E-01  -5.730048623589795E-01
  -5.658868816407808E-01  -5.588573218991444E-01  -5.519150847510577E-01
  -5.450590854578442E-01  -5.382882527556642E-01  -5.316015286881338E-01
  -5.249978684410127E-01  -5.184762401789511E-01  -5.120356248842666E-01
  -5.056750161977137E-01  -4.993934202612464E-01  -4.931898555627187E-01
  -4.870633527825245E-01  -4.810129546421416E-01  -4.750377157545489E-01
  -4.691367024765156E-01  -4.633089927627103E-01  -4.575536760216328E-01
  -4.518698529733345E-01  -4.462566355088990E-01  -4.407131465516788E-01
  -4.352385199202449E-01  -4.298319001930475E-01  -4.244924425747559E-01
  -4.192193127642524E-01  -4.140116868242775E-01  -4.088687510526820E-01
  -4.037897018552877E-01  -3.987737456203257E-01  -3.938200985944274E-01
  -3.889279867601687E-01  -3.840966457151213E-01  -3.793253205524167E-01
  -3.746132657427926E-01  -3.699597450180967E-01  -3.653640312562496E-01
  -3.608254063676251E-01  -3.563431611828499E-01  -3.519165953419959E-01
  -3.475450171851433E-01  -3.432277436443125E-01  -3.389641001367283E-01
  -3.347534204594176E-01  -3.305950466851155E-01  -3.264883290594581E-01
  -3.224326258994626E-01  -3.184273034932581E-01  -3.144717360010692E-01
  -3.105653053574288E-01  -3.067074011745999E-01  -3.028974206472062E-01
  -2.991347684580382E-01  -2.954188566850356E-01  -2.917491047094248E-01
  -2.881249391249927E-01  -2.845457936484941E-01  -2.810111090311659E-01
  -2.775203329713448E-01  -2.740729200281707E-01  -2.706683315363561E-01
  -2.673060355220234E-01  -2.639855066195795E-01  -2.607062259896270E-01
  -2.574676812378969E-01  -2.542693663351818E-01  -2.511107815382722E-01
  -2.479914333118666E-01  -2.449108342514580E-01  -2.418685030071767E-01
  -2.388639642085751E-01  -2.358967483903541E-01  -2.329663919190047E-01
  -2.300724369203660E-01  -2.272144312080825E-01  -2.243919282129462E-01
  -2.216044869131226E-01  -2.188516717652368E-01  -2.161330526363213E-01
  -2.134482047366067E-01  -2.107967085531454E-01  -2.081781497842654E-01
  -2.055921192748307E-01  -2.030382129523129E-01  -2.005160317636537E-01
  -1.980251816129101E-01
    </PP_AE_VLOC>
  </PP_PAW>
</UPF>
