<UPF version="2.0.1">
  <PP_INFO>
    Generated using "atomic" code by A. Dal Corso  v.7.4
    Author: ADC
    Generation date: 13Nov2024
    Pseudopotential type: PAW
    Element:  O
    Functional:  SLA  PZ   NOGX NOGC
    Suggested minimum cutoff for wavefunctions:  47. Ry
    Suggested minimum cutoff for charge density: 323. Ry
    The Pseudo was generated with a Scalar-Relativistic Calculation
    Local Potential by smoothing AE potential with Bessel fncs, cutoff radius:   1.1000
    Valence configuration: 
    nl pn  l   occ       Rcut    Rcut US       E pseu
    2S  1  0  2.00      1.000      1.300    -1.745823
    2P  2  1  4.00      0.900      1.350    -0.676083
    Generation configuration:
    2S  1  0  2.00      1.000      1.300    -1.745817
    2S  1  0  0.00      1.000      1.300     1.000000
    2P  2  1  4.00      0.900      1.350    -0.676077
    2P  2  1  0.00      0.900      1.350     0.050000
    Pseudization used: troullier-martins
    <PP_INPUTFILE>
@input
title='O',
zed=8.,
rel=1,
config='[He] 2s2 2p4',
iswitch=3,
dft='LDA'
/
@inputp
lpaw=.true.,
pseudotype=3,
file_pseudopw='O.pz-n-kjpaw_psl.1.0.0.UPF',
author='ADC',
lloc=-1,
rcloc=1.1
which_augfun='PSQ',
rmatch_augfun_nc=.true.,
nlcc=.true.,
new_core_ps=.true.,
rcore=0.7,
tm=.true.
/
4
2S  1  0  2.00  0.00  1.00  1.30  0.0
2S  1  0  0.00  1.00  1.00  1.30  0.0
2P  2  1  4.00  0.00  0.90  1.35  0.0
2P  2  1  0.00  0.05  0.90  1.35  0.0
    </PP_INPUTFILE>
  </PP_INFO>
    <!-- END OF HUMAN READABLE SECTION -->
  <PP_HEADER generated="Generated using 'atomic' code by A. Dal Corso  v.7.4" author="ADC" date="13Nov2024" comment="" element=" O" pseudo_type="PAW" relativistic="scalar" is_ultrasoft="true" is_paw="true" is_coulomb="false" has_so="false" has_wfc="true" has_gipaw="false" paw_as_gipaw="false" core_correction="true" with_metagga_info="false" functional=" SLA  PZ   NOGX NOGC" z_valence="6.0000000000000000" total_psenergy="-40.163379678622405" wfc_cutoff="46.730847264151755" rho_cutoff="322.79996896983636" l_max="1" l_max_rho="2" l_local="-1" mesh_size="1095" number_of_wfc="2" number_of_proj="4"/>
  <PP_MESH mesh="1095" dx="1.2500000000000001E-002" xmin="-7.0000000000000000" rmax="100.00000000000000" zmesh="8.0000000000000000">
    <PP_R>
   1.139852456943145E-04   1.154190035836278E-04   1.168707959270728E-04
   1.183408495701567E-04   1.198293942117525E-04   1.213366624399886E-04
   1.228628897685923E-04   1.244083146736889E-04   1.259731786310638E-04
   1.275577261538943E-04   1.291622048309546E-04   1.307868653653023E-04
   1.324319616134513E-04   1.340977506250371E-04   1.357844926829822E-04
   1.374924513441648E-04   1.392218934806004E-04   1.409730893211415E-04
   1.427463124937009E-04   1.445418400680072E-04   1.463599525988968E-04
   1.482009341701516E-04   1.500650724388876E-04   1.519526586805018E-04
   1.538639878341851E-04   1.557993585490062E-04   1.577590732305768E-04
   1.597434380883031E-04   1.617527631832310E-04   1.637873624764950E-04
   1.658475538783739E-04   1.679336592979659E-04   1.700460046934867E-04
   1.721849201232021E-04   1.743507397969998E-04   1.765438021286102E-04
   1.787644497884843E-04   1.810130297573369E-04   1.832898933803629E-04
   1.855953964221359E-04   1.879298991221965E-04   1.902937662513414E-04
   1.926873671686188E-04   1.951110758790415E-04   1.975652710920271E-04
   2.000503362805705E-04   2.025666597411633E-04   2.051146346544658E-04
   2.076946591467417E-04   2.103071363520676E-04   2.129524744753217E-04
   2.156310868559678E-04   2.183433920326400E-04   2.210898138085401E-04
   2.238707813176587E-04   2.266867290918269E-04   2.295380971286134E-04
   2.324253309600751E-04   2.353488817223722E-04   2.383092062262596E-04
   2.413067670284637E-04   2.443420325039584E-04   2.474154769191496E-04
   2.505275805059799E-04   2.536788295369668E-04   2.568697164011824E-04
   2.601007396811912E-04   2.633724042309543E-04   2.666852212547135E-04
   2.700397083868693E-04   2.734363897728606E-04   2.768757961510646E-04
   2.803584649357254E-04   2.838849403009259E-04   2.874557732656170E-04
   2.910715217797142E-04   2.947327508112791E-04   2.984400324347967E-04
   3.021939459205629E-04   3.059950778251979E-04   3.098440220832948E-04
   3.137413801002248E-04   3.176877608461073E-04   3.216837809509625E-04
   3.257300648010623E-04   3.298272446364902E-04   3.339759606499313E-04
   3.381768610867033E-04   3.424306023460460E-04   3.467378490836861E-04
   3.510992743156891E-04   3.555155595236209E-04   3.599873947610304E-04
   3.645154787612710E-04   3.691005190466808E-04   3.737432320391325E-04
   3.784443431719769E-04   3.832045870033929E-04   3.880247073311636E-04
   3.929054573088975E-04   3.978475995637084E-04   4.028519063153783E-04
   4.079191594970185E-04   4.130501508772477E-04   4.182456821839090E-04
   4.235065652293390E-04   4.288336220372168E-04   4.342276849710067E-04
   4.396895968640161E-04   4.452202111510912E-04   4.508203920019663E-04
   4.564910144562929E-04   4.622329645603665E-04   4.680471395055725E-04
   4.739344477685760E-04   4.798958092532704E-04   4.859321554345163E-04
   4.920444295036854E-04   4.982335865160363E-04   5.045005935399448E-04
   5.108464298080083E-04   5.172720868700546E-04   5.237785687480724E-04
   5.303668920930925E-04   5.370380863440425E-04   5.437931938885961E-04
   5.506332702260508E-04   5.575593841322502E-04   5.645726178265832E-04
   5.716740671410841E-04   5.788648416916557E-04   5.861460650514514E-04
   5.935188749264347E-04   6.009844233331482E-04   6.085438767787204E-04
   6.161984164431315E-04   6.239492383637771E-04   6.317975536223518E-04
   6.397445885340814E-04   6.477915848393406E-04   6.559397998976731E-04
   6.641905068842594E-04   6.725449949888526E-04   6.810045696172156E-04
   6.895705525950964E-04   6.982442823747625E-04   7.070271142441385E-04
   7.159204205385731E-04   7.249255908552677E-04   7.340440322704065E-04
   7.432771695590118E-04   7.526264454175699E-04   7.620933206894547E-04
   7.716792745931876E-04   7.813858049535702E-04   7.912144284357184E-04
   8.011666807820479E-04   8.112441170522359E-04   8.214483118662016E-04
   8.317808596501467E-04   8.422433748856834E-04   8.528374923621034E-04
   8.635648674318165E-04   8.744271762690013E-04   8.854261161315157E-04
   8.965634056260874E-04   9.078407849768614E-04   9.192600162973045E-04
   9.308228838655423E-04   9.425311944031595E-04   9.543867773574952E-04
   9.663914851875088E-04   9.785471936532217E-04   9.908558021088118E-04
   1.003319233799395E-03   1.015939436161526E-03   1.028718381127504E-03
   1.041658065433476E-03   1.054760510931441E-03   1.068027764905168E-03
   1.081461900390079E-03   1.095065016497179E-03   1.108839238741032E-03
   1.122786719371889E-03   1.136909637711978E-03   1.151210200496018E-03
   1.165690642216041E-03   1.180353225470526E-03   1.195200241317938E-03
   1.210234009634712E-03   1.225456879477728E-03   1.240871229451376E-03
   1.256479468079198E-03   1.272284034180234E-03   1.288287397250094E-03
   1.304492057846813E-03   1.320900547981582E-03   1.337515431514366E-03
   1.354339304554519E-03   1.371374795866436E-03   1.388624567280288E-03
   1.406091314107958E-03   1.423777765564172E-03   1.441686685192953E-03
   1.459820871299432E-03   1.478183157387077E-03   1.496776412600453E-03
   1.515603542173512E-03   1.534667487883554E-03   1.553971228510887E-03
   1.573517780304250E-03   1.593310197452134E-03   1.613351572559984E-03
   1.633645037133435E-03   1.654193762067618E-03   1.675000958142604E-03
   1.696069876525117E-03   1.717403809276518E-03   1.739006089867202E-03
   1.760880093697467E-03   1.783029238624907E-03   1.805456985498485E-03
   1.828166838699278E-03   1.851162346688050E-03   1.874447102559715E-03
   1.898024744604743E-03   1.921898956877679E-03   1.946073469772761E-03
   1.970552060606811E-03   1.995338554209453E-03   2.020436823520734E-03
   2.045850790196303E-03   2.071584425220157E-03   2.097641749525120E-03
   2.124026834621135E-03   2.150743803231423E-03   2.177796829936689E-03
   2.205190141827395E-03   2.232928019164254E-03   2.261014796047039E-03
   2.289454861091772E-03   2.318252658116486E-03   2.347412686835551E-03
   2.376939503562782E-03   2.406837721923366E-03   2.437112013574749E-03
   2.467767108936598E-03   2.498807797929929E-03   2.530238930725549E-03
   2.562065418501907E-03   2.594292234212468E-03   2.626924413362754E-03
   2.659967054797147E-03   2.693425321495596E-03   2.727304441380347E-03
   2.761609708132805E-03   2.796346482020700E-03   2.831520190735621E-03
   2.867136330241116E-03   2.903200465631447E-03   2.939718232001138E-03
   2.976695335325485E-03   3.014137553352109E-03   3.052050736503754E-03
   3.090440808792425E-03   3.129313768745018E-03   3.168675690340618E-03
   3.208532723959554E-03   3.248891097344418E-03   3.289757116573164E-03
   3.331137167044436E-03   3.373037714475311E-03   3.415465305911571E-03
   3.458426570750697E-03   3.501928221777728E-03   3.545977056214138E-03
   3.590579956779929E-03   3.635743892769060E-03   3.681475921138411E-03
   3.727783187610464E-03   3.774672927789813E-03   3.822152468293762E-03
   3.870229227897112E-03   3.918910718691361E-03   3.968204547258494E-03
   4.018118415859508E-03   4.068660123637929E-03   4.119837567838421E-03
   4.171658745040760E-03   4.224131752409320E-03   4.277264788958254E-03
   4.331066156832628E-03   4.385544262605630E-03   4.440707618592121E-03
   4.496564844178708E-03   4.553124667170529E-03   4.610395925155002E-03
   4.668387566882703E-03   4.727108653665635E-03   4.786568360793083E-03
   4.846775978965251E-03   4.907740915744977E-03   4.969472697027665E-03
   5.031980968529731E-03   5.095275497295778E-03   5.159366173224694E-03
   5.224263010614990E-03   5.289976149729540E-03   5.356515858380023E-03
   5.423892533531297E-03   5.492116702925928E-03   5.561199026729190E-03
   5.631150299194728E-03   5.701981450351176E-03   5.773703547710015E-03
   5.846327797994873E-03   5.919865548892616E-03   5.994328290826434E-03
   6.069727658751247E-03   6.146075433971698E-03   6.223383545982993E-03
   6.301664074334922E-03   6.380929250519302E-03   6.461191459881176E-03
   6.542463243554048E-03   6.624757300419475E-03   6.708086489091267E-03
   6.792463829924687E-03   6.877902507050907E-03   6.964415870437050E-03
   7.052017437972169E-03   7.140720897579412E-03   7.230540109354811E-03
   7.321489107732945E-03   7.413582103679840E-03   7.506833486913493E-03
   7.601257828152247E-03   7.696869881391529E-03   7.793684586209182E-03
   7.891717070099797E-03   7.990982650838446E-03   8.091496838874069E-03
   8.193275339753045E-03   8.296334056573205E-03   8.400689092468720E-03
   8.506356753126275E-03   8.613353549332823E-03   8.721696199555458E-03
   8.831401632553703E-03   8.942486990024652E-03   9.054969629281432E-03
   9.168867125965267E-03   9.284197276791738E-03   9.400978102331554E-03
   9.519227849826291E-03   9.638964996039589E-03   9.760208250144146E-03
   9.882976556645086E-03   1.000728909834007E-02   1.013316529931665E-02
   1.026062482798735E-02   1.038968760016282E-02   1.052037378216380E-02
   1.065270379397211E-02   1.078669831242131E-02   1.092237827442755E-02
   1.105976488026091E-02   1.119887959685809E-02   1.133974416117657E-02
   1.148238058359111E-02   1.162681115133294E-02   1.177305843197209E-02
   1.192114527694371E-02   1.207109482511861E-02   1.222293050641876E-02
   1.237667604547829E-02   1.253235546535047E-02   1.268999309126139E-02
   1.284961355441080E-02   1.301124179582083E-02   1.317490307023304E-02
   1.334062295005453E-02   1.350842732935366E-02   1.367834242790612E-02
   1.385039479529175E-02   1.402461131504297E-02   1.420101920884547E-02
   1.437964604079155E-02   1.456051972168713E-02   1.474366851341282E-02
   1.492912103333995E-02   1.511690625880209E-02   1.530705353162274E-02
   1.549959256270016E-02   1.569455343664966E-02   1.589196661650445E-02
   1.609186294847553E-02   1.629427366677146E-02   1.649923039847878E-02
   1.670676516850381E-02   1.691691040457659E-02   1.712969894231781E-02
   1.734516403036941E-02   1.756333933558977E-02   1.778425894831421E-02
   1.800795738768166E-02   1.823446960702843E-02   1.846383099934961E-02
   1.869607740282939E-02   1.893124510644083E-02   1.916937085561606E-02
   1.941049185798788E-02   1.965464578920346E-02   1.990187079881129E-02
   2.015220551622211E-02   2.040568905674480E-02   2.066236102769832E-02
   2.092226153460032E-02   2.118543118743377E-02   2.145191110699236E-02
   2.172174293130564E-02   2.199496882214519E-02   2.227163147161231E-02
   2.255177410880886E-02   2.283544050659185E-02   2.312267498841303E-02
   2.341352243524463E-02   2.370802829259192E-02   2.400623857759428E-02
   2.430819988621546E-02   2.461395940052426E-02   2.492356489606690E-02
   2.523706474933193E-02   2.555450794530926E-02   2.587594408514410E-02
   2.620142339388723E-02   2.653099672834289E-02   2.686471558501508E-02
   2.720263210815413E-02   2.754479909790425E-02   2.789127001855373E-02
   2.824209900688886E-02   2.859734088065281E-02   2.895705114711111E-02
   2.932128601172473E-02   2.969010238693227E-02   3.006355790104277E-02
   3.044171090724010E-02   3.082462049270083E-02   3.121234648782671E-02
   3.160494947559331E-02   3.200249080101626E-02   3.240503258073645E-02
   3.281263771272593E-02   3.322536988611585E-02   3.364329359114798E-02
   3.406647412925158E-02   3.449497762324665E-02   3.492887102767593E-02
   3.536822213926663E-02   3.581309960752376E-02   3.626357294545692E-02
   3.671971254044162E-02   3.718158966521759E-02   3.764927648902529E-02
   3.812284608888241E-02   3.860237246100249E-02   3.908793053235673E-02
   3.957959617238167E-02   4.007744620483386E-02   4.058155841979372E-02
   4.109201158582052E-02   4.160888546225996E-02   4.213226081170681E-02
   4.266221941262424E-02   4.319884407212182E-02   4.374221863889443E-02
   4.429242801632360E-02   4.484955817574397E-02   4.541369616987644E-02
   4.598493014643029E-02   4.656334936187663E-02   4.714904419539463E-02
   4.774210616299364E-02   4.834262793181269E-02   4.895070333459987E-02
   4.956642738437412E-02   5.018989628927085E-02   5.082120746757492E-02
   5.146045956294235E-02   5.210775245981355E-02   5.276318729902069E-02
   5.342686649359085E-02   5.409889374474844E-02   5.477937405811870E-02
   5.546841376013498E-02   5.616612051465271E-02   5.687260333977171E-02
   5.758797262487076E-02   5.831234014785609E-02   5.904581909262684E-02
   5.978852406676052E-02   6.054057111942033E-02   6.130207775948830E-02
   6.207316297392623E-02   6.285394724636761E-02   6.364455257594366E-02
   6.444510249634554E-02   6.525572209512705E-02   6.607653803324971E-02
   6.690767856487378E-02   6.774927355739840E-02   6.860145451175333E-02
   6.946435458294646E-02   7.033810860086952E-02   7.122285309136538E-02
   7.211872629756085E-02   7.302586820146700E-02   7.394442054585193E-02
   7.487452685638822E-02   7.581633246407918E-02   7.676998452796724E-02
   7.773563205812754E-02   7.871342593895130E-02   7.970351895272172E-02
   8.070606580348651E-02   8.172122314123093E-02   8.274914958635428E-02
   8.379000575445496E-02   8.484395428142685E-02   8.591115984887153E-02
   8.699178920983026E-02   8.808601121483921E-02   8.919399683831286E-02
   9.031591920525908E-02   9.145195361833022E-02   9.260227758521475E-02
   9.376707084637276E-02   9.494651540312112E-02   9.614079554607138E-02
   9.735009788392561E-02   9.857461137263460E-02   9.981452734492216E-02
   1.010700395401816E-01   1.023413441347478E-01   1.036286397725500E-01
   1.049321275961509E-01   1.062520112781748E-01   1.075884970531323E-01
   1.089417937496448E-01   1.103121128230744E-01   1.116996683885645E-01
   1.131046772544950E-01   1.145273589563598E-01   1.159679357910692E-01
   1.174266328516845E-01   1.189036780625893E-01   1.203993022151028E-01
   1.219137390035416E-01   1.234472250617353E-01   1.250000000000000E-01
   1.265723064425793E-01   1.281643900655537E-01   1.297764996352282E-01
   1.314088870470031E-01   1.330618073647324E-01   1.347355188605790E-01
   1.364302830553690E-01   1.381463647594560E-01   1.398840321140977E-01
   1.416435566333533E-01   1.434252132465091E-01   1.452292803410354E-01
   1.470560398060864E-01   1.489057770765449E-01   1.507787811776226E-01
   1.526753447700213E-01   1.545957641956607E-01   1.565403395239831E-01
   1.585093745988400E-01   1.605031770859677E-01   1.625220585210614E-01
   1.645663343584527E-01   1.666363240204004E-01   1.687323509470005E-01
   1.708547426467245E-01   1.730038307475940E-01   1.751799510489967E-01
   1.773834435741573E-01   1.796146526232657E-01   1.818739268272752E-01
   1.841616192023770E-01   1.864780872051588E-01   1.888236927884592E-01
   1.911988024579225E-01   1.936037873292666E-01   1.960390231862711E-01
   1.985048905394930E-01   2.010017746857230E-01   2.035300657681889E-01
   2.060901588375160E-01   2.086824539134554E-01   2.113073560473865E-01
   2.139652753856082E-01   2.166566272334245E-01   2.193818321200373E-01
   2.221413158642548E-01   2.249355096410262E-01   2.277648500488137E-01
   2.306297791778126E-01   2.335307446790278E-01   2.364681998342213E-01
   2.394426036267371E-01   2.424544208132194E-01   2.455041219962311E-01
   2.485921836977865E-01   2.517190884338096E-01   2.548853247895270E-01
   2.580913874958110E-01   2.613377775064821E-01   2.646250020765843E-01
   2.679535748416449E-01   2.713240158979304E-01   2.747368518837129E-01
   2.781926160615587E-01   2.816918484016511E-01   2.852350956661630E-01
   2.888229114946881E-01   2.924558564907490E-01   2.961344983093927E-01
   2.998594117458873E-01   3.036311788255361E-01   3.074503888946188E-01
   3.113176387124790E-01   3.152335325447687E-01   3.191986822578659E-01
   3.232137074144809E-01   3.272792353704627E-01   3.313959013728260E-01
   3.355643486590090E-01   3.397852285573806E-01   3.440592005890134E-01
   3.483869325707314E-01   3.527691007194624E-01   3.572063897578957E-01
   3.616994930214701E-01   3.662491125667131E-01   3.708559592809336E-01
   3.755207529933040E-01   3.802442225873332E-01   3.850271061147539E-01
   3.898701509108494E-01   3.947741137112211E-01   3.997397607700343E-01
   4.047678679797454E-01   4.098592209923342E-01   4.150146153420689E-01
   4.202348565698038E-01   4.255207603488522E-01   4.308731526124346E-01
   4.362928696827302E-01   4.417807584015592E-01   4.473376762626975E-01
   4.529644915458676E-01   4.586620834524058E-01   4.644313422426380E-01
   4.702731693749893E-01   4.761884776468328E-01   4.821781913371216E-01
   4.882432463508068E-01   4.943845903650722E-01   5.006031829774161E-01
   5.068999958555845E-01   5.132760128894014E-01   5.197322303445013E-01
   5.262696570179950E-01   5.328893143961028E-01   5.395922368137556E-01
   5.463794716162196E-01   5.532520793227422E-01   5.602111337922581E-01
   5.672577223911884E-01   5.743929461633362E-01   5.816179200019336E-01
   5.889337728238431E-01   5.963416477459503E-01   6.038427022637854E-01
   6.114381084323758E-01   6.191290530493891E-01   6.269167378405703E-01
   6.348023796475102E-01   6.427872106177864E-01   6.508724783974813E-01
   6.590594463261362E-01   6.673493936341475E-01   6.757436156426458E-01
   6.842434239659007E-01   6.928501467162530E-01   7.015651287116443E-01
   7.103897316857435E-01   7.193253345007163E-01   7.283733333626849E-01
   7.375351420398772E-01   7.468121920835402E-01   7.562059330516188E-01
   7.657178327352483E-01   7.753493773881089E-01   7.851020719586458E-01
   7.949774403252287E-01   8.049770255342580E-01   8.151023900412641E-01
   8.253551159550543E-01   8.357368052849090E-01   8.462490801909092E-01
   8.568935832373978E-01   8.676719776496294E-01   8.785859475736626E-01
   8.896371983394996E-01   9.008274567275582E-01   9.121584712384796E-01
   9.236320123663313E-01   9.352498728752607E-01   9.470138680796061E-01
   9.589258361275534E-01   9.709876382883472E-01   9.832011592431115E-01
   9.955683073793475E-01   1.008091015089109E+00   1.020771239070956E+00
   1.033610960635684E+00   1.046612186015908E+00   1.059776946679548E+00
   1.073107299647237E+00   1.086605327813750E+00   1.100273140273452E+00
   1.114112872649842E+00   1.128126687429266E+00   1.142316774298791E+00
   1.156685350488361E+00   1.171234661117242E+00   1.185966979544816E+00
   1.200884607725814E+00   1.215989876569986E+00   1.231285146306323E+00
   1.246772806851841E+00   1.262455278185007E+00   1.278335010723876E+00
   1.294414485708962E+00   1.310696215590946E+00   1.327182744423251E+00
   1.343876648259544E+00   1.360780535556269E+00   1.377897047580201E+00
   1.395228858821171E+00   1.412778677409949E+00   1.430549245541390E+00
   1.448543339902925E+00   1.466763772108402E+00   1.485213389137424E+00
   1.503895073780192E+00   1.522811745087934E+00   1.541966358829033E+00
   1.561361907950852E+00   1.581001423047403E+00   1.600887972832880E+00
   1.621024664621142E+00   1.641414644811254E+00   1.662061099379099E+00
   1.682967254375214E+00   1.704136376428846E+00   1.725571773258387E+00
   1.747276794188206E+00   1.769254830671976E+00   1.791509316822619E+00
   1.814043729948866E+00   1.836861591098618E+00   1.859966465609106E+00
   1.883361963663974E+00   1.907051740857397E+00   1.931039498765253E+00
   1.955328985523521E+00   1.979923996413929E+00   2.004828374456959E+00
   2.030046011012357E+00   2.055580846387133E+00   2.081436870451268E+00
   2.107618123261131E+00   2.134128695690733E+00   2.160972730070958E+00
   2.188154420836786E+00   2.215678015182705E+00   2.243547813726332E+00
   2.271768171180383E+00   2.300343497033134E+00   2.329278256237377E+00
   2.358576969908110E+00   2.388244216028959E+00   2.418284630167477E+00
   2.448702906199502E+00   2.479503797042542E+00   2.510692115398458E+00
   2.542272734505453E+00   2.574250588899504E+00   2.606630675185429E+00
   2.639418052817578E+00   2.672617844890418E+00   2.706235238939009E+00
   2.740275487749559E+00   2.774743910180208E+00   2.809645891992078E+00
   2.844986886690841E+00   2.880772416378825E+00   2.917008072617840E+00
   2.953699517302906E+00   2.990852483546894E+00   3.028472776576372E+00
   3.066566274638672E+00   3.105138929920356E+00   3.144196769477300E+00
   3.183745896176387E+00   3.223792489649133E+00   3.264342807257249E+00
   3.305403185070350E+00   3.346980038856020E+00   3.389079865082238E+00
   3.431709241932512E+00   3.474874830333711E+00   3.518583374996832E+00
   3.562841705470915E+00   3.607656737210129E+00   3.653035472654368E+00
   3.698985002323373E+00   3.745512505924628E+00   3.792625253475245E+00
   3.840330606437867E+00   3.888636018870958E+00   3.937549038593496E+00
   3.987077308364313E+00   4.037228567076340E+00   4.088010650965772E+00
   4.139431494836539E+00   4.191499133300121E+00   4.244221702030944E+00
   4.297607439037654E+00   4.351664685950256E+00   4.406401889323567E+00
   4.461827601956989E+00   4.517950484230867E+00   4.574779305459755E+00
   4.632322945262574E+00   4.690590394950125E+00   4.749590758929975E+00
   4.809333256129017E+00   4.869827221434003E+00   4.931082107150069E+00
   4.993107484477742E+00   5.055913045008429E+00   5.119508602238725E+00
   5.183904093103852E+00   5.249109579530251E+00   5.315135250007848E+00
   5.381991421181995E+00   5.449688539465439E+00   5.518237182670661E+00
   5.587648061662607E+00   5.657932022032345E+00   5.729100045791689E+00
   5.801163253089122E+00   5.874132903947419E+00   5.948020400022963E+00
   6.022837286387352E+00   6.098595253331307E+00   6.175306138191273E+00
   6.252981927199102E+00   6.331634757354833E+00   6.411276918323213E+00
   6.491920854353936E+00   6.573579166226057E+00   6.656264613216962E+00
   6.739990115095946E+00   6.824768754143030E+00   6.910613777193061E+00
   6.997538597705519E+00   7.085556797860484E+00   7.174682130680780E+00
   7.264928522180998E+00   7.356310073543432E+00   7.448841063321374E+00
   7.542535949670257E+00   7.637409372606672E+00   7.733476156295986E+00
   7.830751311368615E+00   7.929250037265418E+00   8.028987724612744E+00
   8.129979957627127E+00   8.232242516550462E+00   8.335791380115651E+00
   8.440642728043269E+00   8.546812943569778E+00   8.654318616007330E+00
   8.763176543335982E+00   8.873403734828367E+00   8.985017413707384E+00
   9.098035019837468E+00   9.212474212449481E+00   9.328352872900114E+00
   9.445689107465835E+00   9.564501250171986E+00   9.684807865657621E+00
   9.806627752076144E+00   9.929979944032667E+00   1.005488371555816E+01
   1.018135858312102E+01   1.030942430867664E+01   1.043910090275516E+01
   1.057040862758825E+01   1.070336800027508E+01   1.083799979598811E+01
   1.097432505121937E+01   1.111236506706729E+01   1.125214141256523E+01
   1.139367592805156E+01   1.153699072858224E+01   1.168210820738647E+01
   1.182905103936552E+01   1.197784218463586E+01   1.212850489211668E+01
   1.228106270316251E+01   1.243553945524174E+01   1.259195928566114E+01
   1.275034663533746E+01   1.291072625261636E+01   1.307312319713928E+01
   1.323756284375925E+01   1.340407088650557E+01   1.357267334259870E+01
   1.374339655651545E+01   1.391626720410529E+01   1.409131229675867E+01
   1.426855918562738E+01   1.444803556589846E+01   1.462976948112149E+01
   1.481378932759042E+01   1.500012385878069E+01   1.518880218984187E+01
   1.537985380214707E+01   1.557330854789943E+01   1.576919665479652E+01
   1.596754873075363E+01   1.616839576868612E+01   1.637176915135232E+01
   1.657770065625708E+01   1.678622246061694E+01   1.699736714638814E+01
   1.721116770535734E+01   1.742765754429690E+01   1.764687049018463E+01
   1.786884079548925E+01   1.809360314352264E+01   1.832119265385890E+01
   1.855164488782207E+01   1.878499585404262E+01   1.902128201408370E+01
   1.926054028813861E+01   1.950280806079939E+01   1.974812318689843E+01
   1.999652399742333E+01   2.024804930550604E+01   2.050273841248775E+01
   2.076063111405951E+01   2.102176770648068E+01   2.128618899287514E+01
   2.155393628960679E+01   2.182505143273556E+01   2.209957678455406E+01
   2.237755524020708E+01   2.265903023439392E+01   2.294404574815500E+01
   2.323264631574429E+01   2.352487703158756E+01   2.382078355732875E+01
   2.412041212896457E+01   2.442380956406887E+01   2.473102326910822E+01
   2.504210124684898E+01   2.535709210385811E+01   2.567604505809792E+01
   2.599900994661633E+01   2.632603723333434E+01   2.665717801693076E+01
   2.699248403882676E+01   2.733200769127052E+01   2.767580202552340E+01
   2.802392076014966E+01   2.837641828940976E+01   2.873334969175986E+01
   2.909477073845779E+01   2.946073790227733E+01   2.983130836633248E+01
   3.020654003301210E+01   3.058649153302755E+01   3.097122223457379E+01
   3.136079225260557E+01   3.175526245823091E+01   3.215469448822187E+01
   3.255915075464585E+01   3.296869445461741E+01   3.338338958017277E+01
   3.380330092826912E+01   3.422849411090882E+01   3.465903556539175E+01
   3.509499256469619E+01   3.553643322799012E+01   3.598342653127542E+01
   3.643604231816502E+01   3.689435131079654E+01   3.735842512088257E+01
   3.782833626089998E+01   3.830415815542057E+01   3.878596515258330E+01
   3.927383253571178E+01   3.976783653507726E+01   4.026805433980957E+01
   4.077456410995854E+01   4.128744498870611E+01   4.180677711473313E+01
   4.233264163474094E+01   4.286512071613055E+01   4.340429755984189E+01
   4.395025641335360E+01   4.450308258384739E+01   4.506286245153721E+01
   4.562968348316611E+01   4.620363424567365E+01   4.678480442003402E+01
   4.737328481526944E+01   4.796916738263903E+01   4.857254523000610E+01
   4.918351263638706E+01   4.980216506668199E+01   5.042859918659189E+01
   5.106291287772257E+01   5.170520525287860E+01   5.235557667155054E+01
   5.301412875559557E+01   5.368096440511674E+01   5.435618781454108E+01
   5.503990448889986E+01   5.573222126031470E+01   5.643324630468944E+01
   5.714308915861362E+01   5.786186073647745E+01   5.858967334780213E+01
   5.932664071478911E+01   6.007287799008867E+01   6.082850177479340E+01
   6.159363013665710E+01   6.236838262854275E+01   6.315288030710369E+01
   6.394724575169803E+01   6.475160308354275E+01   6.556607798510755E+01
   6.639079771975264E+01   6.722589115161468E+01   6.807148876574118E+01
   6.892772268847985E+01   6.979472670812325E+01   7.067263629581315E+01
   7.156158862670898E+01   7.246172260142080E+01   7.337317886771361E+01
   7.429609984248353E+01   7.523062973401028E+01   7.617691456449101E+01
   7.713510219285546E+01   7.810534233787011E+01   7.908778660153176E+01
   8.008258849275511E+01   8.108990345135987E+01   8.210988887235747E+01
   8.314270413054523E+01   8.418851060540868E+01   8.524747170633694E+01
   8.631975289815679E+01   8.740552172698573E+01   8.850494784641242E+01
   8.961820304400499E+01   9.074546126815267E+01   9.188689865524674E+01
   9.304269355720088E+01   9.421302656932016E+01   9.539808055851896E+01
   9.659804069189374E+01   9.781309446565707E+01   9.904343173443276E+01
    </PP_R>
    <PP_RAB>
   1.424815571178932E-06   1.442737544795347E-06   1.460884949088410E-06
   1.479260619626959E-06   1.497867427646906E-06   1.516708280499858E-06
   1.535786122107404E-06   1.555103933421111E-06   1.574664732888298E-06
   1.594471576923679E-06   1.614527560386933E-06   1.634835817066279E-06
   1.655399520168141E-06   1.676221882812964E-06   1.697306158537278E-06
   1.718655641802060E-06   1.740273668507505E-06   1.762163616514269E-06
   1.784328906171262E-06   1.806773000850090E-06   1.829499407486210E-06
   1.852511677126895E-06   1.875813405486095E-06   1.899408233506273E-06
   1.923299847927314E-06   1.947491981862577E-06   1.971988415382210E-06
   1.996792976103788E-06   2.021909539790388E-06   2.047342030956188E-06
   2.073094423479674E-06   2.099170741224573E-06   2.125575058668584E-06
   2.152311501540027E-06   2.179384247462498E-06   2.206797526607627E-06
   2.234555622356054E-06   2.262662871966712E-06   2.291123667254536E-06
   2.319942455276699E-06   2.349123739027457E-06   2.378672078141768E-06
   2.408592089607735E-06   2.438888448488019E-06   2.469565888650339E-06
   2.500629203507132E-06   2.532083246764542E-06   2.563932933180822E-06
   2.596183239334272E-06   2.628839204400846E-06   2.661905930941522E-06
   2.695388585699598E-06   2.729292400407999E-06   2.763622672606751E-06
   2.798384766470734E-06   2.833584113647836E-06   2.869226214107668E-06
   2.905316637000939E-06   2.941861021529652E-06   2.978865077828245E-06
   3.016334587855796E-06   3.054275406299480E-06   3.092693461489370E-06
   3.131594756324749E-06   3.170985369212085E-06   3.210871455014780E-06
   3.251259246014890E-06   3.292155052886929E-06   3.333565265683919E-06
   3.375496354835867E-06   3.417954872160758E-06   3.460947451888308E-06
   3.504480811696568E-06   3.548561753761574E-06   3.593197165820213E-06
   3.638394022246428E-06   3.684159385140989E-06   3.730500405434959E-06
   3.777424324007037E-06   3.824938472814974E-06   3.873050276041185E-06
   3.921767251252811E-06   3.971097010576341E-06   4.021047261887031E-06
   4.071625810013278E-06   4.122840557956128E-06   4.174699508124142E-06
   4.227210763583792E-06   4.280382529325576E-06   4.334223113546076E-06
   4.388740928946114E-06   4.443944494045262E-06   4.499842434512880E-06
   4.556443484515887E-06   4.613756488083511E-06   4.671790400489157E-06
   4.730554289649712E-06   4.790057337542412E-06   4.850308841639545E-06
   4.911318216361220E-06   4.973094994546355E-06   5.035648828942229E-06
   5.098989493712732E-06   5.163126885965597E-06   5.228071027298863E-06
   5.293832065366737E-06   5.360420275465210E-06   5.427846062137584E-06
   5.496119960800201E-06   5.565252639388640E-06   5.635254900024580E-06
   5.706137680703662E-06   5.777912057004582E-06   5.850589243819657E-06
   5.924180597107200E-06   5.998697615665881E-06   6.074151942931454E-06
   6.150555368796068E-06   6.227919831450454E-06   6.306257419249310E-06
   6.385580372600104E-06   6.465901085875683E-06   6.547232109350906E-06
   6.629586151163657E-06   6.712976079300532E-06   6.797414923607452E-06
   6.882915877825635E-06   6.969492301653128E-06   7.057157722832291E-06
   7.145925839263552E-06   7.235810521145697E-06   7.326825813143143E-06
   7.418985936580434E-06   7.512305291664353E-06   7.606798459734005E-06
   7.702480205539145E-06   7.799365479547215E-06   7.897469420279397E-06
   7.996807356676018E-06   8.097394810491758E-06   8.199247498720913E-06
   8.302381336053244E-06   8.406812437360658E-06   8.512557120215196E-06
   8.619631907438707E-06   8.728053529684530E-06   8.837838928051731E-06
   8.949005256732165E-06   9.061569885690847E-06   9.175550403380082E-06
   9.290964619487647E-06   9.407830567719623E-06   9.526166508618185E-06
   9.645990932414846E-06   9.767322561919628E-06   9.890180355446481E-06
   1.001458350977560E-05   1.014055146315295E-05   1.026810389832752E-05
   1.039726074562683E-05   1.052804218607104E-05   1.066046865452629E-05
   1.079456084289771E-05   1.093033970336252E-05   1.106782645164395E-05
   1.120704257032609E-05   1.134800981221077E-05   1.149075020371631E-05
   1.163528604831928E-05   1.178163993003950E-05   1.192983471696869E-05
   1.207989356484386E-05   1.223183992066527E-05   1.238569752636015E-05
   1.254149042249244E-05   1.269924295201908E-05   1.285897976409380E-05
   1.302072581791845E-05   1.318450638664302E-05   1.335034706131460E-05
   1.351827375487599E-05   1.368831270621473E-05   1.386049048426290E-05
   1.403483399214862E-05   1.421137047139973E-05   1.439012750620022E-05
   1.457113302770051E-05   1.475441531838158E-05   1.494000301647423E-05
   1.512792512043390E-05   1.531821099347161E-05   1.551089036814221E-05
   1.570599335098998E-05   1.590355042725292E-05   1.610359246562617E-05
   1.630615072308516E-05   1.651125684976977E-05   1.671894289392958E-05
   1.692924130693149E-05   1.714218494833045E-05   1.735780709100360E-05
   1.757614142634948E-05   1.779722206955215E-05   1.802108356491191E-05
   1.824776089124290E-05   1.847728946733847E-05   1.870970515750566E-05
   1.894504427716891E-05   1.918334359854443E-05   1.942464035638608E-05
   1.966897225380312E-05   1.991637746815167E-05   2.016689465699980E-05
   2.042056296416794E-05   2.067742202584522E-05   2.093751197678255E-05
   2.120087345656396E-05   2.146754761595648E-05   2.173757612334003E-05
   2.201100117121834E-05   2.228786548281134E-05   2.256821231873106E-05
   2.285208548374097E-05   2.313952933360063E-05   2.343058878199644E-05
   2.372530930755929E-05   2.402373696097099E-05   2.432591837215952E-05
   2.463190075758514E-05   2.494173192761816E-05   2.525546029400918E-05
   2.557313487745379E-05   2.589480531525196E-05   2.622052186906400E-05
   2.655033543276419E-05   2.688429754039279E-05   2.722246037420862E-05
   2.756487677284244E-05   2.791160023955318E-05   2.826268495058799E-05
   2.861818576364716E-05   2.897815822645607E-05   2.934265858544439E-05
   2.971174379453478E-05   3.008547152404208E-05   3.046390016968437E-05
   3.084708886170747E-05   3.123509747412411E-05   3.162798663406936E-05
   3.202581773127384E-05   3.242865292765585E-05   3.283655516703442E-05
   3.324958818496434E-05   3.366781651869496E-05   3.409130551725433E-05
   3.452012135166007E-05   3.495433102525876E-05   3.539400238419527E-05
   3.583920412801396E-05   3.629000582039309E-05   3.674647790001423E-05
   3.720869169156856E-05   3.767671941690137E-05   3.815063420629693E-05
   3.863051010990531E-05   3.911642210931274E-05   3.960844612925773E-05
   4.010665904949443E-05   4.061113871680524E-05   4.112196395716455E-05
   4.163921458805545E-05   4.216297143094138E-05   4.269331632389464E-05
   4.323033213438372E-05   4.377410277222160E-05   4.432471320267672E-05
   4.488224945974912E-05   4.544679865961325E-05   4.601844901423014E-05
   4.659728984513080E-05   4.718341159737266E-05   4.777690585367203E-05
   4.837786534871390E-05   4.898638398364202E-05   4.960255684073118E-05
   5.022648019824386E-05   5.085825154547411E-05   5.149796959798026E-05
   5.214573431300950E-05   5.280164690511650E-05   5.346580986197818E-05
   5.413832696040785E-05   5.481930328257037E-05   5.550884523240151E-05
   5.620706055223386E-05   5.691405833963162E-05   5.762994906443753E-05
   5.835484458603378E-05   5.908885817082044E-05   5.983210450991353E-05
   6.058469973706564E-05   6.134676144681221E-05   6.211840871284581E-05
   6.289976210662165E-05   6.369094371619722E-05   6.449207716530867E-05
   6.530328763268737E-05   6.612470187161925E-05   6.695644822975030E-05
   6.779865666914121E-05   6.865145878657410E-05   6.951498783411488E-05
   7.038937873993410E-05   7.127476812938969E-05   7.217129434637519E-05
   7.307909747493592E-05   7.399831936115771E-05   7.492910363533043E-05
   7.587159573439059E-05   7.682594292464622E-05   7.779229432478742E-05
   7.877080092918653E-05   7.976161563149129E-05   8.076489324851471E-05
   8.178079054442560E-05   8.280946625524344E-05   8.385108111364084E-05
   8.490579787405859E-05   8.597378133813635E-05   8.705519838046312E-05
   8.815021797465211E-05   8.925901121974264E-05   9.038175136693514E-05
   9.151861384666182E-05   9.266977629599800E-05   9.383541858641867E-05
   9.501572285190309E-05   9.621087351739412E-05   9.742105732761478E-05
   9.864646337624746E-05   9.988728313548058E-05   1.011437104859259E-04
   1.024159417469131E-04   1.037041757071651E-04   1.050086136558590E-04
   1.063294594140784E-04   1.076669193666603E-04   1.090212024944432E-04
   1.103925204069213E-04   1.117810873753082E-04   1.131871203660179E-04
   1.146108390745658E-04   1.160524659598967E-04   1.175122262791444E-04
   1.189903481228286E-04   1.204870624504949E-04   1.220026031268018E-04
   1.235372069580636E-04   1.250911137292509E-04   1.266645662414582E-04
   1.282578103498419E-04   1.298710950020353E-04   1.315046722770475E-04
   1.331587974246514E-04   1.348337289052664E-04   1.365297284303444E-04
   1.382470610032614E-04   1.399859949607261E-04   1.417468020147071E-04
   1.435297572948889E-04   1.453351393916617E-04   1.471632303996511E-04
   1.490143159617964E-04   1.508886853139826E-04   1.527866313302345E-04
   1.547084505684786E-04   1.566544433168809E-04   1.586249136407673E-04
   1.606201694301351E-04   1.626405224477604E-04   1.646862883779130E-04
   1.667577868756816E-04   1.688553416169208E-04   1.709792803488265E-04
   1.731299349411468E-04   1.753076414380371E-04   1.775127401105684E-04
   1.797455755098944E-04   1.820064965210891E-04   1.842958564176603E-04
   1.866140129167494E-04   1.889613282350261E-04   1.913381691452843E-04
   1.937449070337520E-04   1.961819179581208E-04   1.986495827063056E-04
   2.011482868559441E-04   2.036784208346433E-04   2.062403799809848E-04
   2.088345646062977E-04   2.114613800572074E-04   2.141212367789726E-04
   2.168145503796177E-04   2.195417416948721E-04   2.223032368539276E-04
   2.250994673460207E-04   2.279308700878554E-04   2.307978874918701E-04
   2.337009675353674E-04   2.366405638305104E-04   2.396171356952008E-04
   2.426311482248485E-04   2.456830723650432E-04   2.487733849851412E-04
   2.519025689527764E-04   2.550711132093100E-04   2.582795128462290E-04
   2.615282691825040E-04   2.648178898429222E-04   2.681488888374045E-04
   2.715217866413205E-04   2.749371102768149E-04   2.783953933951539E-04
   2.818971763601107E-04   2.854430063323981E-04   2.890334373551629E-04
   2.926690304405579E-04   2.963503536573990E-04   3.000779822199285E-04
   3.038524985776933E-04   3.076744925065532E-04   3.115445612008362E-04
   3.154633093666492E-04   3.194313493163658E-04   3.234493010643013E-04
   3.275177924235903E-04   3.316374591042861E-04   3.358089448126885E-04
   3.400329013519266E-04   3.443099887238031E-04   3.486408752319216E-04
   3.530262375861108E-04   3.574667610081602E-04   3.619631393388889E-04
   3.665160751465591E-04   3.711262798366534E-04   3.757944737630347E-04
   3.805213863405012E-04   3.853077561587603E-04   3.901543310978340E-04
   3.950618684449164E-04   4.000311350127033E-04   4.050629072592057E-04
   4.101579714090741E-04   4.153171235764481E-04   4.205411698893498E-04
   4.258309266156448E-04   4.311872202905832E-04   4.366108878459491E-04
   4.421027767408329E-04   4.476637450940471E-04   4.532946618182115E-04
   4.589964067555203E-04   4.647698708152199E-04   4.706159561128161E-04
   4.765355761110301E-04   4.825296557625311E-04   4.885991316544592E-04
   4.947449521547709E-04   5.009680775604233E-04   5.072694802474214E-04
   5.136501448227566E-04   5.201110682782494E-04   5.266532601463351E-04
   5.332777426578031E-04   5.399855509015227E-04   5.467777329861804E-04
   5.536553502040450E-04   5.606194771967997E-04   5.676712021234555E-04
   5.748116268303787E-04   5.820418670234579E-04   5.893630524424330E-04
   5.967763270374205E-04   6.042828491476587E-04   6.118837916824984E-04
   6.195803423046766E-04   6.273737036158857E-04   6.352650933446865E-04
   6.432557445367794E-04   6.513469057476694E-04   6.595398412377587E-04
   6.678358311698857E-04   6.762361718093556E-04   6.847421757264837E-04
   6.933551720016873E-04   7.020765064331589E-04   7.109075417471465E-04
   7.198496578108846E-04   7.289042518482011E-04   7.380727386578355E-04
   7.473565508345065E-04   7.567571389927542E-04   7.662759719936037E-04
   7.759145371740779E-04   7.856743405795952E-04   7.955569071992958E-04
   8.055637812043192E-04   8.156965261890882E-04   8.259567254156214E-04
   8.363459820609223E-04   8.468659194674800E-04   8.575181813969166E-04
   8.683044322868308E-04   8.792263575108690E-04   8.902856636420673E-04
   9.014840787195107E-04   9.128233525183375E-04   9.243052568231492E-04
   9.359315857048528E-04   9.477041558009898E-04   9.596248065995906E-04
   9.716954007265943E-04   9.839178242368911E-04   9.962939869090216E-04
   1.008825822543581E-03   1.021515289265387E-03   1.034364369829428E-03
   1.047375071930687E-03   1.060549428517836E-03   1.073889498110894E-03
   1.087397365122878E-03   1.101075140185490E-03   1.114924960478911E-03
   1.128948990065739E-03   1.143149420229128E-03   1.157528469815184E-03
   1.172088385579660E-03   1.186831442539014E-03   1.201759944325892E-03
   1.216876223549070E-03   1.232182642157933E-03   1.247681591811527E-03
   1.263375494252270E-03   1.279266801684348E-03   1.295357997156876E-03
   1.311651594951887E-03   1.328150140977185E-03   1.344856213164154E-03
   1.361772421870560E-03   1.378901410288430E-03   1.396245854857056E-03
   1.413808465681187E-03   1.431591986954497E-03   1.449599197388365E-03
   1.467832910646056E-03   1.486295975782366E-03   1.504991277688785E-03
   1.523921737544271E-03   1.543090313271691E-03   1.562500000000000E-03
   1.582153830532242E-03   1.602054875819421E-03   1.622206245440352E-03
   1.642611088087539E-03   1.663272592059155E-03   1.684193985757237E-03
   1.705378538192113E-03   1.726829559493200E-03   1.748550401426221E-03
   1.770544457916916E-03   1.792815165581363E-03   1.815366004262943E-03
   1.838200497576080E-03   1.861322213456811E-03   1.884734764720282E-03
   1.908441809625266E-03   1.932447052445758E-03   1.956754244049789E-03
   1.981367182485501E-03   2.006289713574596E-03   2.031525731513268E-03
   2.057079179480659E-03   2.082954050255006E-03   2.109154386837506E-03
   2.135684283084057E-03   2.162547884344924E-03   2.189749388112459E-03
   2.217293044676966E-03   2.245183157790821E-03   2.273424085340940E-03
   2.302020240029712E-03   2.330976090064486E-03   2.360296159855740E-03
   2.389985030724031E-03   2.420047341615833E-03   2.450487789828390E-03
   2.481311131743663E-03   2.512522183571537E-03   2.544125822102361E-03
   2.576126985468951E-03   2.608530673918192E-03   2.641341950592331E-03
   2.674565942320102E-03   2.708207840417807E-03   2.742272901500467E-03
   2.776766448303186E-03   2.811693870512827E-03   2.847060625610172E-03
   2.882872239722658E-03   2.919134308487848E-03   2.955852497927766E-03
   2.993032545334214E-03   3.030680260165243E-03   3.068801524952888E-03
   3.107402296222331E-03   3.146488605422621E-03   3.186066559869087E-03
   3.226142343697637E-03   3.266722218831027E-03   3.307812525957304E-03
   3.349419685520562E-03   3.391550198724130E-03   3.434210648546411E-03
   3.477407700769483E-03   3.521148105020638E-03   3.565438695827038E-03
   3.610286393683601E-03   3.655698206134363E-03   3.701681228867409E-03
   3.748242646823591E-03   3.795389735319201E-03   3.843129861182736E-03
   3.891470483905988E-03   3.940419156809609E-03   3.989983528223323E-03
   4.040171342681011E-03   4.090990442130784E-03   4.142448767160325E-03
   4.194554358237613E-03   4.247315356967258E-03   4.300740007362668E-03
   4.354836657134143E-03   4.409613758993280E-03   4.465079871973697E-03
   4.521243662768377E-03   4.578113907083914E-03   4.635699491011670E-03
   4.694009412416301E-03   4.753052782341665E-03   4.812838826434424E-03
   4.873376886385618E-03   4.934676421390265E-03   4.996747009625429E-03
   5.059598349746818E-03   5.123240262404178E-03   5.187682691775861E-03
   5.252935707122548E-03   5.319009504360653E-03   5.385914407655433E-03
   5.453660871034128E-03   5.522259480019490E-03   5.591720953283720E-03
   5.662056144323345E-03   5.733276043155073E-03   5.805391778032975E-03
   5.878414617187367E-03   5.952355970585410E-03   6.027227391714021E-03
   6.103040579385086E-03   6.179807379563402E-03   6.257539787217702E-03
   6.336249948194807E-03   6.415950161117518E-03   6.496652879306267E-03
   6.578370712724938E-03   6.661116429951285E-03   6.744902960171945E-03
   6.829743395202745E-03   6.915650991534278E-03   7.002639172403226E-03
   7.090721529889855E-03   7.179911827041703E-03   7.270224000024170E-03
   7.361672160298038E-03   7.454270596824380E-03   7.548033778297318E-03
   7.642976355404698E-03   7.739113163117365E-03   7.836459223007129E-03
   7.935029745593878E-03   8.034840132722331E-03   8.135905979968517E-03
   8.238243079076703E-03   8.341867420426844E-03   8.446795195533074E-03
   8.553042799573758E-03   8.660626833953163E-03   8.769564108895555E-03
   8.879871646071794E-03   8.991566681258955E-03   9.104666667033563E-03
   9.219189275498465E-03   9.335152401044253E-03   9.452574163145235E-03
   9.571472909190604E-03   9.691867217351362E-03   9.813775899483073E-03
   9.937218004065359E-03   1.006221281917823E-02   1.018877987551580E-02
   1.031693894943818E-02   1.044671006606136E-02   1.057811350238637E-02
   1.071116979046747E-02   1.084589972062037E-02   1.098232434467078E-02
   1.112046497924375E-02   1.126034320909448E-02   1.140198089048100E-02
   1.154540015457914E-02   1.169062341094076E-02   1.183767335099508E-02
   1.198657295159442E-02   1.213734547860434E-02   1.229001449053889E-02
   1.244460384224184E-02   1.260113768861387E-02   1.275964048838695E-02
   1.292013700794605E-02   1.308265232519885E-02   1.324721183349435E-02
   1.341384124559046E-02   1.358256659767188E-02   1.375341425341815E-02
   1.392641090812303E-02   1.410158359286583E-02   1.427895967873489E-02
   1.445856688110451E-02   1.464043326396552E-02   1.482458724431020E-02
   1.501105759657267E-02   1.519987345712483E-02   1.539106432882903E-02
   1.558466008564801E-02   1.578069097731259E-02   1.597918763404845E-02
   1.618018107136203E-02   1.638370269488683E-02   1.658978430529064E-02
   1.679845810324430E-02   1.700975669445336E-02   1.722371309475251E-02
   1.744036073526463E-02   1.765973346762436E-02   1.788186556926738E-02
   1.810679174878657E-02   1.833454715135502E-02   1.856516736421781E-02
   1.879868842225241E-02   1.903514681359918E-02   1.927457948536292E-02
   1.951702384938565E-02   1.976251778809254E-02   2.001109966041100E-02
   2.026280830776427E-02   2.051768306014067E-02   2.077576374223873E-02
   2.103709067969017E-02   2.130170470536057E-02   2.156964716572984E-02
   2.184095992735258E-02   2.211568538339970E-02   2.239386646028273E-02
   2.267554662436082E-02   2.296076988873272E-02   2.324958082011383E-02
   2.354202454579968E-02   2.383814676071747E-02   2.413799373456567E-02
   2.444161231904402E-02   2.474904995517412E-02   2.506035468071199E-02
   2.537557513765447E-02   2.569476057983916E-02   2.601796088064085E-02
   2.634522654076414E-02   2.667660869613416E-02   2.701215912588698E-02
   2.735193026045983E-02   2.769597518978382E-02   2.804434767157915E-02
   2.839710213975479E-02   2.875429371291418E-02   2.911597820296721E-02
   2.948221212385138E-02   2.985305270036198E-02   3.022855787709347E-02
   3.060878632749378E-02   3.099379746303177E-02   3.138365144248073E-02
   3.177840918131817E-02   3.217813236124380E-02   3.258288343981787E-02
   3.299272566021973E-02   3.340772306113023E-02   3.382794048673762E-02
   3.425344359686949E-02   3.468429887725260E-02   3.512057364990098E-02
   3.556233608363552E-02   3.600965520473531E-02   3.646260090772301E-02
   3.692124396628633E-02   3.738565604433618E-02   3.785590970720466E-02
   3.833207843298340E-02   3.881423662400445E-02   3.930245961846625E-02
   3.979682370220484E-02   4.029740612061417E-02   4.080428509071562E-02
   4.131753981337938E-02   4.183725048570025E-02   4.236349831352798E-02
   4.289636552415640E-02   4.343593537917140E-02   4.398229218746040E-02
   4.453552131838644E-02   4.509570921512662E-02   4.566294340817960E-02
   4.623731252904216E-02   4.681890632405786E-02   4.740781566844057E-02
   4.800413258047334E-02   4.860795023588697E-02   4.921936298241870E-02
   4.983846635455391E-02   5.046535708845426E-02   5.110013313707215E-02
   5.174289368545674E-02   5.239373916625151E-02   5.305277127538680E-02
   5.372009298797067E-02   5.439580857437820E-02   5.508002361654460E-02
   5.577284502446236E-02   5.647438105288584E-02   5.718474131824694E-02
   5.790403681578218E-02   5.863237993687657E-02   5.936988448662470E-02
   6.011666570161272E-02   6.087284026792503E-02   6.163852633937587E-02
   6.241384355597177E-02   6.319891306260537E-02   6.399385752798407E-02
   6.479880116379814E-02   6.561386974412814E-02   6.643919062509811E-02
   6.727489276477494E-02   6.812110674331799E-02   6.897796478338326E-02
   6.984560077078260E-02   7.072415027540432E-02   7.161375057239612E-02
   7.251454066361403E-02   7.342666129934274E-02   7.435025500028704E-02
   7.528546607984191E-02   7.623244066664135E-02   7.719132672739093E-02
   7.816227408998877E-02   7.914543446693542E-02   8.014096147904017E-02
   8.114901067942420E-02   8.216973957782571E-02   8.320330766521203E-02
   8.424987643869933E-02   8.530960942678788E-02   8.638267221491326E-02
   8.746923247131899E-02   8.856945997325605E-02   8.968352663350976E-02
   9.081160652726249E-02   9.195387591929291E-02   9.311051329151718E-02
   9.428169937087821E-02   9.546761715758340E-02   9.666845195369983E-02
   9.788439139210769E-02   9.911562546581773E-02   1.003623465576593E-01
   1.016247494703391E-01   1.029030314568808E-01   1.041973922514456E-01
   1.055080341005409E-01   1.068351617946222E-01   1.081789827000916E-01
   1.095397067916998E-01   1.109175466853546E-01   1.123127176713423E-01
   1.137254377479684E-01   1.151559276556185E-01   1.166044109112514E-01
   1.180711138433229E-01   1.195562656271498E-01   1.210600983207203E-01
   1.225828469009518E-01   1.241247493004083E-01   1.256860464444771E-01
   1.272669822890127E-01   1.288678038584580E-01   1.304887612844395E-01
   1.321301078448531E-01   1.337921000034385E-01   1.354749974498514E-01
   1.371790631402421E-01   1.389045633383411E-01   1.406517676570653E-01
   1.424209491006445E-01   1.442123841072780E-01   1.460263525923308E-01
   1.478631379920690E-01   1.497230273079483E-01   1.516063111514585E-01
   1.535132837895314E-01   1.554442431905218E-01   1.573994910707643E-01
   1.593793329417183E-01   1.613840781577045E-01   1.634140399642410E-01
   1.654695355469907E-01   1.675508860813196E-01   1.696584167824838E-01
   1.717924569564432E-01   1.739533400513162E-01   1.761414037094833E-01
   1.783569898203423E-01   1.806004445737307E-01   1.828721185140186E-01
   1.851723665948802E-01   1.875015482347587E-01   1.898600273730234E-01
   1.922481725268383E-01   1.946663568487429E-01   1.971149581849565E-01
   1.995943591344204E-01   2.021049471085765E-01   2.046471143919041E-01
   2.072212582032135E-01   2.098277807577118E-01   2.124670893298518E-01
   2.151395963169668E-01   2.178457193037112E-01   2.205858811273078E-01
   2.233605099436157E-01   2.261700392940330E-01   2.290149081732362E-01
   2.318955610977760E-01   2.348124481755328E-01   2.377660251760463E-01
   2.407567536017327E-01   2.437851007599924E-01   2.468515398362304E-01
   2.499565499677917E-01   2.531006163188256E-01   2.562842301560969E-01
   2.595078889257439E-01   2.627720963310085E-01   2.660773624109393E-01
   2.694242036200849E-01   2.728131429091945E-01   2.762447098069257E-01
   2.797194405025886E-01   2.832378779299240E-01   2.868005718519375E-01
   2.904080789468036E-01   2.940609628948445E-01   2.977597944666094E-01
   3.015051516120572E-01   3.052976195508609E-01   3.091377908638527E-01
   3.130262655856123E-01   3.169636512982264E-01   3.209505632262240E-01
   3.249876243327041E-01   3.290754654166793E-01   3.332147252116345E-01
   3.374060504853346E-01   3.416500961408815E-01   3.459475253190425E-01
   3.502990095018708E-01   3.547052286176220E-01   3.591668711469982E-01
   3.636846342307223E-01   3.682592237784666E-01   3.728913545791561E-01
   3.775817504126512E-01   3.823311441628444E-01   3.871402779321724E-01
   3.920099031575697E-01   3.969407807278864E-01   4.019336811027734E-01
   4.069893844330731E-01   4.121086806827176E-01   4.172923697521596E-01
   4.225412616033641E-01   4.278561763863603E-01   4.332379445673968E-01
   4.386874070587024E-01   4.442054153498765E-01   4.497928316409427E-01
   4.554505289770628E-01   4.611793913849567E-01   4.669803140110322E-01
   4.728542032612498E-01   4.788019769427572E-01   4.848245644072913E-01
   4.909229066963972E-01   4.970979566884657E-01   5.033506792476196E-01
   5.096820513744817E-01   5.160930623588265E-01   5.225847139341642E-01
   5.291580204342619E-01   5.358140089516319E-01   5.425537194980236E-01
   5.493782051669200E-01   5.562885322980924E-01   5.632857806442152E-01
   5.703710435395765E-01   5.775454280709207E-01   5.848100552504253E-01
   5.921660601908680E-01   5.996145922829879E-01   6.071568153750763E-01
   6.147939079548382E-01   6.225270633335249E-01   6.303574898323987E-01
   6.382864109715322E-01   6.463150656609825E-01   6.544447083943817E-01
   6.626766094449447E-01   6.710120550639593E-01   6.794523476817635E-01
   6.879988061112483E-01   6.966527657539338E-01   7.054155788086180E-01
   7.142886144826703E-01   7.232732592059681E-01   7.323709168475266E-01
   7.415830089348640E-01   7.509109748761085E-01   7.603562721849175E-01
   7.699203767082138E-01   7.796047828567845E-01   7.894110038387961E-01
   7.993405718962254E-01   8.093950385442844E-01   8.195759748138445E-01
   8.298849714969081E-01   8.403236393951835E-01   8.508936095717647E-01
   8.615965336059981E-01   8.724340838515406E-01   8.834079536976644E-01
   8.945198578338623E-01   9.057715325177601E-01   9.171647358464201E-01
   9.287012480310441E-01   9.403828716751286E-01   9.522114320561377E-01
   9.641887774106932E-01   9.763167792233765E-01   9.885973325191471E-01
   1.001032356159439E+00   1.013623793141998E+00   1.026373610904469E+00
   1.039283801631815E+00   1.052356382567609E+00   1.065593396329212E+00
   1.078996911226960E+00   1.092569021587322E+00   1.106311848080155E+00
   1.120227538050062E+00   1.134318265851908E+00   1.148586233190584E+00
   1.163033669465011E+00   1.177662832116502E+00   1.192476006981487E+00
   1.207475508648672E+00   1.222663680820713E+00   1.238042896680410E+00
    </PP_RAB>
  </PP_MESH>
  <PP_NLCC size="1095">
   8.661537123686029E-01   8.661537103208727E-01   8.661537082213037E-01
   8.661537060685839E-01   8.661537038613679E-01   8.661537015982759E-01
   8.661536992778933E-01   8.661536968987702E-01   8.661536944594194E-01
   8.661536919583158E-01   8.661536893938967E-01   8.661536867645589E-01
   8.661536840686590E-01   8.661536813045123E-01   8.661536784703909E-01
   8.661536755645233E-01   8.661536725850933E-01   8.661536695302388E-01
   8.661536663980501E-01   8.661536631865699E-01   8.661536598937906E-01
   8.661536565176541E-01   8.661536530560505E-01   8.661536495068157E-01
   8.661536458677319E-01   8.661536421365243E-01   8.661536383108603E-01
   8.661536343883497E-01   8.661536303665401E-01   8.661536262429178E-01
   8.661536220149056E-01   8.661536176798611E-01   8.661536132350740E-01
   8.661536086777669E-01   8.661536040050909E-01   8.661535992141254E-01
   8.661535943018761E-01   8.661535892652731E-01   8.661535841011673E-01
   8.661535788063319E-01   8.661535733774570E-01   8.661535678111497E-01
   8.661535621039305E-01   8.661535562522326E-01   8.661535502523982E-01
   8.661535441006771E-01   8.661535377932248E-01   8.661535313260982E-01
   8.661535246952560E-01   8.661535178965531E-01   8.661535109257402E-01
   8.661535037784605E-01   8.661534964502464E-01   8.661534889365181E-01
   8.661534812325785E-01   8.661534733336133E-01   8.661534652346844E-01
   8.661534569307306E-01   8.661534484165609E-01   8.661534396868543E-01
   8.661534307361543E-01   8.661534215588661E-01   8.661534121492538E-01
   8.661534025014364E-01   8.661533926093832E-01   8.661533824669115E-01
   8.661533720676822E-01   8.661533614051954E-01   8.661533504727863E-01
   8.661533392636223E-01   8.661533277706969E-01   8.661533159868271E-01
   8.661533039046471E-01   8.661532915166055E-01   8.661532788149594E-01
   8.661532657917694E-01   8.661532524388962E-01   8.661532387479938E-01
   8.661532247105045E-01   8.661532103176546E-01   8.661531955604486E-01
   8.661531804296616E-01   8.661531649158380E-01   8.661531490092798E-01
   8.661531327000456E-01   8.661531159779414E-01   8.661530988325152E-01
   8.661530812530510E-01   8.661530632285610E-01   8.661530447477791E-01
   8.661530257991542E-01   8.661530063708429E-01   8.661529864507024E-01
   8.661529660262811E-01   8.661529450848137E-01   8.661529236132109E-01
   8.661529015980524E-01   8.661528790255780E-01   8.661528558816795E-01
   8.661528321518904E-01   8.661528078213798E-01   8.661527828749401E-01
   8.661527572969787E-01   8.661527310715087E-01   8.661527041821390E-01
   8.661526766120621E-01   8.661526483440461E-01   8.661526193604228E-01
   8.661525896430762E-01   8.661525591734324E-01   8.661525279324470E-01
   8.661524959005932E-01   8.661524630578501E-01   8.661524293836904E-01
   8.661523948570662E-01   8.661523594563979E-01   8.661523231595583E-01
   8.661522859438614E-01   8.661522477860463E-01   8.661522086622626E-01
   8.661521685480575E-01   8.661521274183579E-01   8.661520852474569E-01
   8.661520420089964E-01   8.661519976759507E-01   8.661519522206108E-01
   8.661519056145657E-01   8.661518578286852E-01   8.661518088331016E-01
   8.661517585971914E-01   8.661517070895558E-01   8.661516542780008E-01
   8.661516001295179E-01   8.661515446102626E-01   8.661514876855337E-01
   8.661514293197522E-01   8.661513694764370E-01   8.661513081181852E-01
   8.661512452066453E-01   8.661511807024965E-01   8.661511145654217E-01
   8.661510467540834E-01   8.661509772260979E-01   8.661509059380076E-01
   8.661508328452562E-01   8.661507579021585E-01   8.661506810618731E-01
   8.661506022763725E-01   8.661505214964140E-01   8.661504386715081E-01
   8.661503537498868E-01   8.661502666784716E-01   8.661501774028408E-01
   8.661500858671952E-01   8.661499920143222E-01   8.661498957855617E-01
   8.661497971207680E-01   8.661496959582730E-01   8.661495922348481E-01
   8.661494858856633E-01   8.661493768442476E-01   8.661492650424478E-01
   8.661491504103848E-01   8.661490328764111E-01   8.661489123670646E-01
   8.661487888070247E-01   8.661486621190632E-01   8.661485322239972E-01
   8.661483990406398E-01   8.661482624857479E-01   8.661481224739713E-01
   8.661479789178005E-01   8.661478317275091E-01   8.661476808111001E-01
   8.661475260742473E-01   8.661473674202373E-01   8.661472047499083E-01
   8.661470379615878E-01   8.661468669510289E-01   8.661466916113479E-01
   8.661465118329537E-01   8.661463275034806E-01   8.661461385077203E-01
   8.661459447275462E-01   8.661457460418424E-01   8.661455423264272E-01
   8.661453334539746E-01   8.661451192939357E-01   8.661448997124570E-01
   8.661446745722966E-01   8.661444437327384E-01   8.661442070495040E-01
   8.661439643746630E-01   8.661437155565400E-01   8.661434604396205E-01
   8.661431988644523E-01   8.661429306675484E-01   8.661426556812818E-01
   8.661423737337828E-01   8.661420846488311E-01   8.661417882457458E-01
   8.661414843392712E-01   8.661411727394631E-01   8.661408532515689E-01
   8.661405256759057E-01   8.661401898077359E-01   8.661398454371396E-01
   8.661394923488831E-01   8.661391303222835E-01   8.661387591310726E-01
   8.661383785432539E-01   8.661379883209583E-01   8.661375882202962E-01
   8.661371779912030E-01   8.661367573772850E-01   8.661363261156578E-01
   8.661358839367831E-01   8.661354305642990E-01   8.661349657148484E-01
   8.661344890979016E-01   8.661340004155738E-01   8.661334993624414E-01
   8.661329856253482E-01   8.661324588832117E-01   8.661319188068209E-01
   8.661313650586335E-01   8.661307972925613E-01   8.661302151537553E-01
   8.661296182783861E-01   8.661290062934135E-01   8.661283788163550E-01
   8.661277354550463E-01   8.661270758073965E-01   8.661263994611375E-01
   8.661257059935639E-01   8.661249949712729E-01   8.661242659498897E-01
   8.661235184737923E-01   8.661227520758252E-01   8.661219662770084E-01
   8.661211605862387E-01   8.661203344999816E-01   8.661194875019570E-01
   8.661186190628175E-01   8.661177286398170E-01   8.661168156764703E-01
   8.661158796022090E-01   8.661149198320212E-01   8.661139357660879E-01
   8.661129267894089E-01   8.661118922714164E-01   8.661108315655833E-01
   8.661097440090182E-01   8.661086289220505E-01   8.661074856078081E-01
   8.661063133517799E-01   8.661051114213708E-01   8.661038790654425E-01
   8.661026155138463E-01   8.661013199769406E-01   8.660999916450979E-01
   8.660986296881995E-01   8.660972332551169E-01   8.660958014731798E-01
   8.660943334476305E-01   8.660928282610666E-01   8.660912849728671E-01
   8.660897026186042E-01   8.660880802094426E-01   8.660864167315200E-01
   8.660847111453157E-01   8.660829623849999E-01   8.660811693577692E-01
   8.660793309431637E-01   8.660774459923668E-01   8.660755133274886E-01
   8.660735317408295E-01   8.660714999941271E-01   8.660694168177818E-01
   8.660672809100656E-01   8.660650909363068E-01   8.660628455280596E-01
   8.660605432822469E-01   8.660581827602868E-01   8.660557624871926E-01
   8.660532809506525E-01   8.660507366000858E-01   8.660481278456744E-01
   8.660454530573704E-01   8.660427105638788E-01   8.660398986516141E-01
   8.660370155636307E-01   8.660340594985257E-01   8.660310286093157E-01
   8.660279210022825E-01   8.660247347357926E-01   8.660214678190846E-01
   8.660181182110266E-01   8.660146838188432E-01   8.660111624968094E-01
   8.660075520449111E-01   8.660038502074719E-01   8.660000546717482E-01
   8.659961630665224E-01   8.659921729604207E-01   8.659880818608503E-01
   8.659838872118628E-01   8.659795863930937E-01   8.659751767176198E-01
   8.659706554308669E-01   8.659660197083734E-01   8.659612666541400E-01
   8.659563932991600E-01   8.659513965992717E-01   8.659462734330415E-01
   8.659410206004238E-01   8.659356348203432E-01   8.659301127284972E-01
   8.659244508758422E-01   8.659186457258259E-01   8.659126936526017E-01
   8.659065909385837E-01   8.659003337722484E-01   8.658939182453819E-01
   8.658873403512621E-01   8.658805959817903E-01   8.658736809248427E-01
   8.658665908618601E-01   8.658593213650313E-01   8.658518678947867E-01
   8.658442257964162E-01   8.658363902979085E-01   8.658283565063261E-01
   8.658201194051262E-01   8.658116738508989E-01   8.658030145702575E-01
   8.657941361564573E-01   8.657850330661142E-01   8.657756996156732E-01
   8.657661299779590E-01   8.657563181784901E-01   8.657462580917022E-01
   8.657359434374055E-01   8.657253677764535E-01   8.657145245070517E-01
   8.657034068607010E-01   8.656920078977054E-01   8.656803205029786E-01
   8.656683373818781E-01   8.656560510551895E-01   8.656434538548258E-01
   8.656305379191894E-01   8.656172951875883E-01   8.656037173961932E-01
   8.655897960721953E-01   8.655755225287494E-01   8.655608878596888E-01
   8.655458829338503E-01   8.655304983895629E-01   8.655147246286942E-01
   8.654985518106718E-01   8.654819698464841E-01   8.654649683925623E-01
   8.654475368439408E-01   8.654296643280983E-01   8.654113396980003E-01
   8.653925515252942E-01   8.653732880931145E-01   8.653535373890444E-01
   8.653332870972390E-01   8.653125245914494E-01   8.652912369266300E-01
   8.652694108311141E-01   8.652470326986266E-01   8.652240885794601E-01
   8.652005641722358E-01   8.651764448147771E-01   8.651517154752058E-01
   8.651263607426802E-01   8.651003648177030E-01   8.650737115025715E-01
   8.650463841911618E-01   8.650183658590048E-01   8.649896390522988E-01
   8.649601858777229E-01   8.649299879908753E-01   8.648990265853788E-01
   8.648672823810629E-01   8.648347356121800E-01   8.648013660151294E-01
   8.647671528161643E-01   8.647320747185255E-01   8.646961098893490E-01
   8.646592359461878E-01   8.646214299433942E-01   8.645826683579239E-01
   8.645429270750139E-01   8.645021813732064E-01   8.644604059093874E-01
   8.644175747031495E-01   8.643736611208751E-01   8.643286378595253E-01
   8.642824769298058E-01   8.642351496391167E-01   8.641866265740739E-01
   8.641368775823992E-01   8.640858717546531E-01   8.640335774053047E-01
   8.639799620534278E-01   8.639249924029363E-01   8.638686343222286E-01
   8.638108528235395E-01   8.637516120415619E-01   8.636908752116877E-01
   8.636286046476992E-01   8.635647617188641E-01   8.634993068266007E-01
   8.634321993803770E-01   8.633633977731835E-01   8.632928593564120E-01
   8.632205404139954E-01   8.631463961361114E-01   8.630703805920596E-01
   8.629924467026374E-01   8.629125462117893E-01   8.628306296575281E-01
   8.627466463422729E-01   8.626605443023608E-01   8.625722702769388E-01
   8.624817696760071E-01   8.623889865477748E-01   8.622938635452174E-01
   8.621963418918094E-01   8.620963613465477E-01   8.619938601679740E-01
   8.618887750775185E-01   8.617810412218990E-01   8.616705921345926E-01
   8.615573596965442E-01   8.614412740957812E-01   8.613222637862109E-01
   8.612002554454131E-01   8.610751739314488E-01   8.609469422386383E-01
   8.608154814523932E-01   8.606807107029220E-01   8.605425471179282E-01
   8.604009057741707E-01   8.602556996479599E-01   8.601068395644964E-01
   8.599542341460725E-01   8.597977897590563E-01   8.596374104597320E-01
   8.594729979388848E-01   8.593044514651379E-01   8.591316678270302E-01
   8.589545412737924E-01   8.587729634547943E-01   8.585868233576980E-01
   8.583960072451743E-01   8.582003985902740E-01   8.579998780103665E-01
   8.577943231996387E-01   8.575836088601476E-01   8.573676066313447E-01
   8.571461850181167E-01   8.569192093172692E-01   8.566865415424438E-01
   8.564480403474717E-01   8.562035609480643E-01   8.559529550419168E-01
   8.556960707271051E-01   8.554327524188232E-01   8.551628407643906E-01
   8.548861725565465E-01   8.546025806449546E-01   8.543118938459590E-01
   8.540139368505170E-01   8.537085301303056E-01   8.533954898420106E-01
   8.530746277297044E-01   8.527457510253923E-01   8.524086623475974E-01
   8.520631595980732E-01   8.517090358565508E-01   8.513460792735473E-01
   8.509740729611952E-01   8.505927948820956E-01   8.502020177362001E-01
   8.498015088456382E-01   8.493910300376059E-01   8.489703375251801E-01
   8.485391817861572E-01   8.480973074398364E-01   8.476444531217959E-01
   8.471803513566716E-01   8.467047284288824E-01   8.462173042513886E-01
   8.457177922324339E-01   8.452058991403305E-01   8.446813249662617E-01
   8.441437627851716E-01   8.435928986147204E-01   8.430284112723757E-01
   8.424499722306557E-01   8.418572454705433E-01   8.412498873331781E-01
   8.406275463697918E-01   8.399898631900191E-01   8.393364703085896E-01
   8.386669919905160E-01   8.379810440947943E-01   8.372782339167733E-01
   8.365581600292025E-01   8.358204121221263E-01   8.350645708416792E-01
   8.342902076279207E-01   8.334968845518375E-01   8.326841541516224E-01
   8.318515592684148E-01   8.309986328816038E-01   8.301248979439144E-01
   8.292298672164222E-01   8.283130431037010E-01   8.273739174892994E-01
   8.264119715717820E-01   8.254266757015495E-01   8.244174892187049E-01
   8.233838602922160E-01   8.223252257606735E-01   8.212410109749313E-01
   8.201306296429550E-01   8.189934836772240E-01   8.178289630450345E-01
   8.166364456220916E-01   8.154152970498069E-01   8.141648705966984E-01
   8.128845070243762E-01   8.115735344585822E-01   8.102312682657704E-01
   8.088570109357963E-01   8.074500519712406E-01   8.060096677839814E-01
   8.045351215996314E-01   8.030256633705032E-01   8.014805296977733E-01
   7.998989437636015E-01   7.982801152739397E-01   7.966232404128490E-01
   7.949275018091568E-01   7.931920685163404E-01   7.914160960065570E-01
   7.895987261797927E-01   7.877390873891362E-01   7.858362944832501E-01
   7.838894488671312E-01   7.818976385823364E-01   7.798599384078668E-01
   7.777754099829877E-01   7.756431019532920E-01   7.734620501413796E-01
   7.712312777435866E-01   7.689497955542512E-01   7.666166022190598E-01
   7.642306845190886E-01   7.617910176872028E-01   7.592965657585551E-01
   7.567462819569776E-01   7.541391091191295E-01   7.514739801583282E-01
   7.487498185700616E-01   7.459655389812387E-01   7.431200477453127E-01
   7.402122435854600E-01   7.372410182880886E-01   7.342052574489959E-01
   7.311038412745668E-01   7.279356454404763E-01   7.246995420104054E-01
   7.213944004173568E-01   7.180190885102046E-01   7.145724736681716E-01
   7.110534239859835E-01   7.074608095324865E-01   7.037935036855730E-01
   7.000503845462899E-01   6.962303364350391E-01   6.923322514728084E-01
   6.883550312503892E-01   6.842975885885452E-01   6.801588493921082E-01
   6.759377546009563E-01   6.716332622408203E-01   6.672443495768290E-01
   6.627700153726566E-01   6.582092822580808E-01   6.535611992076797E-01
   6.488248441333052E-01   6.439993265928501E-01   6.390837906177047E-01
   6.340774176611281E-01   6.289794296695905E-01   6.237890922789255E-01
   6.185057181369051E-01   6.131286703535737E-01   6.076573660803889E-01
   6.020912802188758E-01   5.964299492591373E-01   5.906729752481432E-01
   5.848200298872802E-01   5.788708587581379E-01   5.728252856749640E-01
   5.666832171616354E-01   5.604446470503247E-01   5.541096611983637E-01
   5.476784423190227E-01   5.411512749211134E-01   5.345285503514368E-01
   5.278107719331364E-01   5.209985601920065E-01   5.140926581617019E-01
   5.070939367576347E-01   5.000034002081005E-01   4.928221915298481E-01
   4.855515980339161E-01   4.781930568460708E-01   4.707481604246194E-01
   4.632186620567311E-01   4.556064813126625E-01   4.479137094354846E-01
   4.401426146420140E-01   4.322956473086882E-01   4.243754450140878E-01
   4.163848374076868E-01   4.083268508722475E-01   4.002047129450371E-01
   3.920218564607542E-01   3.837819233767368E-01   3.754887682386449E-01
   3.671464612424568E-01   3.587592908462238E-01   3.503317658826582E-01
   3.418686171213177E-01   3.333747982268240E-01   3.248554860574014E-01
   3.163160802458858E-01   3.077622020033831E-01   2.991996920840041E-01
   2.906346078474339E-01   2.820732193548089E-01   2.735220044322580E-01
   2.649876426357268E-01   2.564770080503850E-01   2.479971608579278E-01
   2.395553376057121E-01   2.311589401127518E-01   2.228155229493289E-01
   2.145327794294465E-01   2.063185260584615E-01   1.981806853823112E-01
   1.901272671896289E-01   1.821663480239371E-01   1.743060489701291E-01
   1.665545116874874E-01   1.589198726708986E-01   1.514102357325191E-01
   1.440336427081743E-01   1.367980424062772E-01   1.297112578319833E-01
   1.227809517359212E-01   1.160145905549800E-01   1.094194068324866E-01
   1.030023602266586E-01   9.677009723938153E-02   9.072890982228969E-02
   8.488469304361020E-02   7.924290202730569E-02   7.380850840562603E-02
   6.858595655700564E-02   6.357911993333125E-02   5.879125781355867E-02
   5.422497285433062E-02   4.988216984231190E-02   4.576401608695699E-02
   4.187090392606849E-02   3.820241584915710E-02   3.475729277479778E-02
   3.153340604725472E-02   2.852773374383935E-02   2.573634190710847E-02
   2.315437133413316E-02   2.077603056782783E-02   1.859459574170680E-02
   1.660241792834421E-02   1.479093863220358E-02   1.315071404814959E-02
   1.167144867671548E-02   1.034203884485876E-02   9.150626625268525E-03
   8.084818320717375E-03   7.132740665555984E-03   6.283504426089508E-03
   5.527124385638600E-03   4.854458448061570E-03   4.257149524076432E-03
   3.727570187332204E-03   3.258770076418750E-03   2.844426009033112E-03
   2.478794765352944E-03   2.156668489316170E-03   1.873332648971904E-03
   1.624526490350130E-03   1.406405913388810E-03   1.215508693342767E-03
   1.048721966762371E-03   9.032518975472875E-04   7.765954357254340E-04
   6.665140794484872E-04   5.710095491983092E-04   4.883012823270056E-04
   4.168056557667149E-04   3.551168450026415E-04   3.019892281611907E-04
   2.563212452802245E-04   2.171406244563282E-04   1.835908885596803E-04
   1.549190585266914E-04   1.304644718404892E-04   1.096486376471348E-04
   9.196605299034198E-05   7.697590784003209E-05   6.429460990308292E-05
   5.358906360296346E-05   4.457064106568994E-05   3.698978642070562E-05
   3.063119821820789E-05   2.530953800910261E-05   2.086561737175182E-05
   1.716301652835564E-05   1.408509508727110E-05   1.153235499855858E-05
   9.420119421861903E-06   7.676495147997975E-06   6.240588454491803E-06
   5.060946789942978E-06   4.094201174966419E-06   3.303886511542853E-06
   2.659419150097339E-06   2.135213075312404E-06   1.709917939863857E-06
   1.365763903288629E-06   1.087999825324303E-06   8.644128243285105E-07
   6.849185474370242E-07   5.412127160750929E-07   4.264756147666620E-07
   3.351221895938974E-07   2.625913219732563E-07   2.051686504946721E-07
   1.598380352274689E-07   1.241574018177557E-07   9.615527339275954E-08
   7.424480302057692E-08   5.715256424950514E-08   4.385974776660549E-08
   3.355375384167900E-08   2.558846799115475E-08   1.945176588852607E-08
   1.473901729513601E-08   1.113155167079637E-08   8.379213790885398E-09
   6.286279458670721E-09   4.700122256278863E-09   3.502124922832978E-09
   2.600415799414707E-09   1.924083989723139E-09   1.418588360357994E-09
   1.042126928459232E-09   7.627760343926742E-10   5.562442640387703E-10
   4.041154913477940E-10   2.924796284284795E-10   2.108695341003049E-10
   1.514387597269992E-10   1.083280151869233E-10   7.717893771457390E-11
   5.476238135901045E-11   3.869538454493478E-11   2.722652719123866E-11
   1.907381500105641E-11   1.330274087955547E-11   9.234948642238225E-12
   6.380107432094569E-12   4.385315304272995E-12   2.997683903422698E-12
   2.036791331650611E-12   1.374490291913693E-12   9.201739794078714E-13
   6.100736371313299E-13   3.995196052761825E-13   2.573781292297471E-13
   1.620439505530506E-13   9.888170601062342E-14   5.663852471623739E-14
   0.000000000000000E+00   0.000000000000000E+00   0.000000000000000E+00
   0.000000000000000E+00   0.000000000000000E+00   0.000000000000000E+00
   0.000000000000000E+00   0.000000000000000E+00   0.000000000000000E+00
   0.000000000000000E+00   0.000000000000000E+00   0.000000000000000E+00
   0.000000000000000E+00   0.000000000000000E+00   0.000000000000000E+00
   0.000000000000000E+00   0.000000000000000E+00   0.000000000000000E+00
   0.000000000000000E+00   0.000000000000000E+00   0.000000000000000E+00
   0.000000000000000E+00   0.000000000000000E+00   0.000000000000000E+00
   0.000000000000000E+00   0.000000000000000E+00   0.000000000000000E+00
   0.000000000000000E+00   0.000000000000000E+00   0.000000000000000E+00
   0.000000000000000E+00   0.000000000000000E+00   0.000000000000000E+00
   0.000000000000000E+00   0.000000000000000E+00   0.000000000000000E+00
   0.000000000000000E+00   0.000000000000000E+00   0.000000000000000E+00
   0.000000000000000E+00   0.000000000000000E+00   0.000000000000000E+00
   0.000000000000000E+00   0.000000000000000E+00   0.000000000000000E+00
   0.000000000000000E+00   0.000000000000000E+00   0.000000000000000E+00
   0.000000000000000E+00   0.000000000000000E+00   0.000000000000000E+00
   0.000000000000000E+00   0.000000000000000E+00   0.000000000000000E+00
   0.000000000000000E+00   0.000000000000000E+00   0.000000000000000E+00
   0.000000000000000E+00   0.000000000000000E+00   0.000000000000000E+00
   0.000000000000000E+00   0.000000000000000E+00   0.000000000000000E+00
   0.000000000000000E+00   0.000000000000000E+00   0.000000000000000E+00
   0.000000000000000E+00   0.000000000000000E+00   0.000000000000000E+00
   0.000000000000000E+00   0.000000000000000E+00   0.000000000000000E+00
   0.000000000000000E+00   0.000000000000000E+00   0.000000000000000E+00
   0.000000000000000E+00   0.000000000000000E+00   0.000000000000000E+00
   0.000000000000000E+00   0.000000000000000E+00   0.000000000000000E+00
   0.000000000000000E+00   0.000000000000000E+00   0.000000000000000E+00
   0.000000000000000E+00   0.000000000000000E+00   0.000000000000000E+00
   0.000000000000000E+00   0.000000000000000E+00   0.000000000000000E+00
   0.000000000000000E+00   0.000000000000000E+00   0.000000000000000E+00
   0.000000000000000E+00   0.000000000000000E+00   0.000000000000000E+00
   0.000000000000000E+00   0.000000000000000E+00   0.000000000000000E+00
   0.000000000000000E+00   0.000000000000000E+00   0.000000000000000E+00
   0.000000000000000E+00   0.000000000000000E+00   0.000000000000000E+00
   0.000000000000000E+00   0.000000000000000E+00   0.000000000000000E+00
   0.000000000000000E+00   0.000000000000000E+00   0.000000000000000E+00
   0.000000000000000E+00   0.000000000000000E+00   0.000000000000000E+00
   0.000000000000000E+00   0.000000000000000E+00   0.000000000000000E+00
   0.000000000000000E+00   0.000000000000000E+00   0.000000000000000E+00
   0.000000000000000E+00   0.000000000000000E+00   0.000000000000000E+00
   0.000000000000000E+00   0.000000000000000E+00   0.000000000000000E+00
   0.000000000000000E+00   0.000000000000000E+00   0.000000000000000E+00
   0.000000000000000E+00   0.000000000000000E+00   0.000000000000000E+00
   0.000000000000000E+00   0.000000000000000E+00   0.000000000000000E+00
   0.000000000000000E+00   0.000000000000000E+00   0.000000000000000E+00
   0.000000000000000E+00   0.000000000000000E+00   0.000000000000000E+00
   0.000000000000000E+00   0.000000000000000E+00   0.000000000000000E+00
   0.000000000000000E+00   0.000000000000000E+00   0.000000000000000E+00
   0.000000000000000E+00   0.000000000000000E+00   0.000000000000000E+00
   0.000000000000000E+00   0.000000000000000E+00   0.000000000000000E+00
   0.000000000000000E+00   0.000000000000000E+00   0.000000000000000E+00
   0.000000000000000E+00   0.000000000000000E+00   0.000000000000000E+00
   0.000000000000000E+00   0.000000000000000E+00   0.000000000000000E+00
   0.000000000000000E+00   0.000000000000000E+00   0.000000000000000E+00
   0.000000000000000E+00   0.000000000000000E+00   0.000000000000000E+00
   0.000000000000000E+00   0.000000000000000E+00   0.000000000000000E+00
   0.000000000000000E+00   0.000000000000000E+00   0.000000000000000E+00
   0.000000000000000E+00   0.000000000000000E+00   0.000000000000000E+00
   0.000000000000000E+00   0.000000000000000E+00   0.000000000000000E+00
   0.000000000000000E+00   0.000000000000000E+00   0.000000000000000E+00
   0.000000000000000E+00   0.000000000000000E+00   0.000000000000000E+00
   0.000000000000000E+00   0.000000000000000E+00   0.000000000000000E+00
   0.000000000000000E+00   0.000000000000000E+00   0.000000000000000E+00
   0.000000000000000E+00   0.000000000000000E+00   0.000000000000000E+00
   0.000000000000000E+00   0.000000000000000E+00   0.000000000000000E+00
   0.000000000000000E+00   0.000000000000000E+00   0.000000000000000E+00
   0.000000000000000E+00   0.000000000000000E+00   0.000000000000000E+00
   0.000000000000000E+00   0.000000000000000E+00   0.000000000000000E+00
   0.000000000000000E+00   0.000000000000000E+00   0.000000000000000E+00
   0.000000000000000E+00   0.000000000000000E+00   0.000000000000000E+00
   0.000000000000000E+00   0.000000000000000E+00   0.000000000000000E+00
   0.000000000000000E+00   0.000000000000000E+00   0.000000000000000E+00
   0.000000000000000E+00   0.000000000000000E+00   0.000000000000000E+00
   0.000000000000000E+00   0.000000000000000E+00   0.000000000000000E+00
   0.000000000000000E+00   0.000000000000000E+00   0.000000000000000E+00
   0.000000000000000E+00   0.000000000000000E+00   0.000000000000000E+00
   0.000000000000000E+00   0.000000000000000E+00   0.000000000000000E+00
   0.000000000000000E+00   0.000000000000000E+00   0.000000000000000E+00
   0.000000000000000E+00   0.000000000000000E+00   0.000000000000000E+00
   0.000000000000000E+00   0.000000000000000E+00   0.000000000000000E+00
   0.000000000000000E+00   0.000000000000000E+00   0.000000000000000E+00
   0.000000000000000E+00   0.000000000000000E+00   0.000000000000000E+00
   0.000000000000000E+00   0.000000000000000E+00   0.000000000000000E+00
   0.000000000000000E+00   0.000000000000000E+00   0.000000000000000E+00
   0.000000000000000E+00   0.000000000000000E+00   0.000000000000000E+00
   0.000000000000000E+00   0.000000000000000E+00   0.000000000000000E+00
   0.000000000000000E+00   0.000000000000000E+00   0.000000000000000E+00
   0.000000000000000E+00   0.000000000000000E+00   0.000000000000000E+00
   0.000000000000000E+00   0.000000000000000E+00   0.000000000000000E+00
   0.000000000000000E+00   0.000000000000000E+00   0.000000000000000E+00
   0.000000000000000E+00   0.000000000000000E+00   0.000000000000000E+00
   0.000000000000000E+00   0.000000000000000E+00   0.000000000000000E+00
   0.000000000000000E+00   0.000000000000000E+00   0.000000000000000E+00
   0.000000000000000E+00   0.000000000000000E+00   0.000000000000000E+00
   0.000000000000000E+00   0.000000000000000E+00   0.000000000000000E+00
   0.000000000000000E+00   0.000000000000000E+00   0.000000000000000E+00
  </PP_NLCC>
  <PP_LOCAL size="1095">
  -2.545005587700206E+01  -2.545005586894307E+01  -2.545005586068007E+01
  -2.545005585220790E+01  -2.545005584352125E+01  -2.545005583461471E+01
  -2.545005582548269E+01  -2.545005581611949E+01  -2.545005580651928E+01
  -2.545005579667603E+01  -2.545005578658360E+01  -2.545005577623569E+01
  -2.545005576562581E+01  -2.545005575474735E+01  -2.545005574359350E+01
  -2.545005573215727E+01  -2.545005572043155E+01  -2.545005570840897E+01
  -2.545005569608206E+01  -2.545005568344308E+01  -2.545005567048414E+01
  -2.545005565719715E+01  -2.545005564357379E+01  -2.545005562960556E+01
  -2.545005561528371E+01  -2.545005560059931E+01  -2.545005558554316E+01
  -2.545005557010587E+01  -2.545005555427779E+01  -2.545005553804901E+01
  -2.545005552140940E+01  -2.545005550434854E+01  -2.545005548685580E+01
  -2.545005546892022E+01  -2.545005545053060E+01  -2.545005543167544E+01
  -2.545005541234297E+01  -2.545005539252108E+01  -2.545005537219741E+01
  -2.545005535135924E+01  -2.545005532999354E+01  -2.545005530808696E+01
  -2.545005528562582E+01  -2.545005526259608E+01  -2.545005523898333E+01
  -2.545005521477282E+01  -2.545005518994941E+01  -2.545005516449760E+01
  -2.545005513840148E+01  -2.545005511164472E+01  -2.545005508421062E+01
  -2.545005505608201E+01  -2.545005502724133E+01  -2.545005499767054E+01
  -2.545005496735116E+01  -2.545005493626424E+01  -2.545005490439035E+01
  -2.545005487170957E+01  -2.545005483820147E+01  -2.545005480384511E+01
  -2.545005476861901E+01  -2.545005473250116E+01  -2.545005469546898E+01
  -2.545005465749933E+01  -2.545005461856846E+01  -2.545005457865206E+01
  -2.545005453772517E+01  -2.545005449576220E+01  -2.545005445273695E+01
  -2.545005440862250E+01  -2.545005436339128E+01  -2.545005431701503E+01
  -2.545005426946476E+01  -2.545005422071075E+01  -2.545005417072253E+01
  -2.545005411946885E+01  -2.545005406691767E+01  -2.545005401303615E+01
  -2.545005395779062E+01  -2.545005390114654E+01  -2.545005384306850E+01
  -2.545005378352021E+01  -2.545005372246445E+01  -2.545005365986306E+01
  -2.545005359567689E+01  -2.545005352986585E+01  -2.545005346238880E+01
  -2.545005339320355E+01  -2.545005332226687E+01  -2.545005324953443E+01
  -2.545005317496075E+01  -2.545005309849923E+01  -2.545005302010207E+01
  -2.545005293972028E+01  -2.545005285730362E+01  -2.545005277280056E+01
  -2.545005268615829E+01  -2.545005259732268E+01  -2.545005250623818E+01
  -2.545005241284786E+01  -2.545005231709335E+01  -2.545005221891481E+01
  -2.545005211825086E+01  -2.545005201503860E+01  -2.545005190921350E+01
  -2.545005180070942E+01  -2.545005168945855E+01  -2.545005157539136E+01
  -2.545005145843654E+01  -2.545005133852099E+01  -2.545005121556976E+01
  -2.545005108950601E+01  -2.545005096025094E+01  -2.545005082772377E+01
  -2.545005069184165E+01  -2.545005055251966E+01  -2.545005040967072E+01
  -2.545005026320554E+01  -2.545005011303257E+01  -2.545004995905796E+01
  -2.545004980118546E+01  -2.545004963931640E+01  -2.545004947334962E+01
  -2.545004930318135E+01  -2.545004912870526E+01  -2.545004894981229E+01
  -2.545004876639062E+01  -2.545004857832561E+01  -2.545004838549971E+01
  -2.545004818779240E+01  -2.545004798508011E+01  -2.545004777723613E+01
  -2.545004756413056E+01  -2.545004734563020E+01  -2.545004712159848E+01
  -2.545004689189536E+01  -2.545004665637729E+01  -2.545004641489705E+01
  -2.545004616730371E+01  -2.545004591344252E+01  -2.545004565315480E+01
  -2.545004538627787E+01  -2.545004511264492E+01  -2.545004483208493E+01
  -2.545004454442252E+01  -2.545004424947791E+01  -2.545004394706675E+01
  -2.545004363700001E+01  -2.545004331908390E+01  -2.545004299311971E+01
  -2.545004265890370E+01  -2.545004231622698E+01  -2.545004196487535E+01
  -2.545004160462924E+01  -2.545004123526344E+01  -2.545004085654711E+01
  -2.545004046824354E+01  -2.545004007011002E+01  -2.545003966189771E+01
  -2.545003924335147E+01  -2.545003881420968E+01  -2.545003837420413E+01
  -2.545003792305979E+01  -2.545003746049469E+01  -2.545003698621970E+01
  -2.545003649993840E+01  -2.545003600134683E+01  -2.545003549013337E+01
  -2.545003496597850E+01  -2.545003442855457E+01  -2.545003387752573E+01
  -2.545003331254754E+01  -2.545003273326686E+01  -2.545003213932164E+01
  -2.545003153034064E+01  -2.545003090594324E+01  -2.545003026573914E+01
  -2.545002960932823E+01  -2.545002893630022E+01  -2.545002824623444E+01
  -2.545002753869958E+01  -2.545002681325341E+01  -2.545002606944252E+01
  -2.545002530680198E+01  -2.545002452485513E+01  -2.545002372311324E+01
  -2.545002290107518E+01  -2.545002205822716E+01  -2.545002119404237E+01
  -2.545002030798066E+01  -2.545001939948825E+01  -2.545001846799727E+01
  -2.545001751292552E+01  -2.545001653367607E+01  -2.545001552963683E+01
  -2.545001450018027E+01  -2.545001344466295E+01  -2.545001236242512E+01
  -2.545001125279038E+01  -2.545001011506513E+01  -2.545000894853831E+01
  -2.545000775248078E+01  -2.545000652614497E+01  -2.545000526876441E+01
  -2.545000397955316E+01  -2.545000265770546E+01  -2.545000130239511E+01
  -2.544999991277500E+01  -2.544999848797657E+01  -2.544999702710929E+01
  -2.544999552926009E+01  -2.544999399349275E+01  -2.544999241884739E+01
  -2.544999080433981E+01  -2.544998914896089E+01  -2.544998745167599E+01
  -2.544998571142424E+01  -2.544998392711796E+01  -2.544998209764189E+01
  -2.544998022185256E+01  -2.544997829857758E+01  -2.544997632661483E+01
  -2.544997430473179E+01  -2.544997223166472E+01  -2.544997010611790E+01
  -2.544996792676283E+01  -2.544996569223734E+01  -2.544996340114480E+01
  -2.544996105205323E+01  -2.544995864349437E+01  -2.544995617396283E+01
  -2.544995364191508E+01  -2.544995104576854E+01  -2.544994838390055E+01
  -2.544994565464738E+01  -2.544994285630320E+01  -2.544993998711895E+01
  -2.544993704530133E+01  -2.544993402901166E+01  -2.544993093636467E+01
  -2.544992776542741E+01  -2.544992451421795E+01  -2.544992118070423E+01
  -2.544991776280272E+01  -2.544991425837717E+01  -2.544991066523724E+01
  -2.544990698113714E+01  -2.544990320377424E+01  -2.544989933078761E+01
  -2.544989535975656E+01  -2.544989128819912E+01  -2.544988711357048E+01
  -2.544988283326143E+01  -2.544987844459670E+01  -2.544987394483329E+01
  -2.544986933115877E+01  -2.544986460068952E+01  -2.544985975046892E+01
  -2.544985477746550E+01  -2.544984967857106E+01  -2.544984445059870E+01
  -2.544983909028088E+01  -2.544983359426730E+01  -2.544982795912289E+01
  -2.544982218132560E+01  -2.544981625726425E+01  -2.544981018323620E+01
  -2.544980395544513E+01  -2.544979756999859E+01  -2.544979102290561E+01
  -2.544978431007419E+01  -2.544977742730874E+01  -2.544977037030747E+01
  -2.544976313465969E+01  -2.544975571584306E+01  -2.544974810922077E+01
  -2.544974031003863E+01  -2.544973231342210E+01  -2.544972411437325E+01
  -2.544971570776762E+01  -2.544970708835108E+01  -2.544969825073644E+01
  -2.544968918940017E+01  -2.544967989867893E+01  -2.544967037276600E+01
  -2.544966060570768E+01  -2.544965059139956E+01  -2.544964032358272E+01
  -2.544962979583979E+01  -2.544961900159096E+01  -2.544960793408988E+01
  -2.544959658641940E+01  -2.544958495148730E+01  -2.544957302202183E+01
  -2.544956079056715E+01  -2.544954824947874E+01  -2.544953539091851E+01
  -2.544952220685002E+01  -2.544950868903338E+01  -2.544949482902014E+01
  -2.544948061814797E+01  -2.544946604753531E+01  -2.544945110807577E+01
  -2.544943579043244E+01  -2.544942008503213E+01  -2.544940398205924E+01
  -2.544938747144980E+01  -2.544937054288501E+01  -2.544935318578504E+01
  -2.544933538930204E+01  -2.544931714231373E+01  -2.544929843341635E+01
  -2.544927925091734E+01  -2.544925958282823E+01  -2.544923941685722E+01
  -2.544921874040125E+01  -2.544919754053827E+01  -2.544917580401928E+01
  -2.544915351725977E+01  -2.544913066633152E+01  -2.544910723695372E+01
  -2.544908321448406E+01  -2.544905858390965E+01  -2.544903332983773E+01
  -2.544900743648578E+01  -2.544898088767185E+01  -2.544895366680448E+01
  -2.544892575687226E+01  -2.544889714043321E+01  -2.544886779960385E+01
  -2.544883771604818E+01  -2.544880687096599E+01  -2.544877524508136E+01
  -2.544874281863045E+01  -2.544870957134924E+01  -2.544867548246083E+01
  -2.544864053066249E+01  -2.544860469411232E+01  -2.544856795041568E+01
  -2.544853027661111E+01  -2.544849164915604E+01  -2.544845204391214E+01
  -2.544841143613009E+01  -2.544836980043434E+01  -2.544832711080709E+01
  -2.544828334057203E+01  -2.544823846237786E+01  -2.544819244818109E+01
  -2.544814526922843E+01  -2.544809689603910E+01  -2.544804729838618E+01
  -2.544799644527775E+01  -2.544794430493786E+01  -2.544789084478619E+01
  -2.544783603141808E+01  -2.544777983058358E+01  -2.544772220716602E+01
  -2.544766312516011E+01  -2.544760254764947E+01  -2.544754043678358E+01
  -2.544747675375421E+01  -2.544741145877111E+01  -2.544734451103716E+01
  -2.544727586872305E+01  -2.544720548894102E+01  -2.544713332771817E+01
  -2.544705933996899E+01  -2.544698347946728E+01  -2.544690569881713E+01
  -2.544682594942370E+01  -2.544674418146241E+01  -2.544666034384828E+01
  -2.544657438420386E+01  -2.544648624882653E+01  -2.544639588265514E+01
  -2.544630322923545E+01  -2.544620823068513E+01  -2.544611082765753E+01
  -2.544601095930464E+01  -2.544590856323926E+01  -2.544580357549593E+01
  -2.544569593049125E+01  -2.544558556098269E+01  -2.544547239802703E+01
  -2.544535637093696E+01  -2.544523740723738E+01  -2.544511543261995E+01
  -2.544499037089687E+01  -2.544486214395342E+01  -2.544473067169923E+01
  -2.544459587201833E+01  -2.544445766071798E+01  -2.544431595147624E+01
  -2.544417065578818E+01  -2.544402168291067E+01  -2.544386893980592E+01
  -2.544371233108341E+01  -2.544355175894061E+01  -2.544338712310191E+01
  -2.544321832075627E+01  -2.544304524649315E+01  -2.544286779223684E+01
  -2.544268584717919E+01  -2.544249929771066E+01  -2.544230802734948E+01
  -2.544211191666928E+01  -2.544191084322462E+01  -2.544170468147487E+01
  -2.544149330270605E+01  -2.544127657495076E+01  -2.544105436290607E+01
  -2.544082652784928E+01  -2.544059292755178E+01  -2.544035341619045E+01
  -2.544010784425706E+01  -2.543985605846525E+01  -2.543959790165528E+01
  -2.543933321269632E+01  -2.543906182638630E+01  -2.543878357334924E+01
  -2.543849827993004E+01  -2.543820576808653E+01  -2.543790585527893E+01
  -2.543759835435651E+01  -2.543728307344128E+01  -2.543695981580895E+01
  -2.543662837976674E+01  -2.543628855852830E+01  -2.543594014008529E+01
  -2.543558290707588E+01  -2.543521663664994E+01  -2.543484110033083E+01
  -2.543445606387370E+01  -2.543406128712031E+01  -2.543365652385014E+01
  -2.543324152162787E+01  -2.543281602164691E+01  -2.543237975856920E+01
  -2.543193246036080E+01  -2.543147384812351E+01  -2.543100363592227E+01
  -2.543052153060819E+01  -2.543002723163719E+01  -2.542952043088417E+01
  -2.542900081245246E+01  -2.542846805247852E+01  -2.542792181893185E+01
  -2.542736177140985E+01  -2.542678756092761E+01  -2.542619882970239E+01
  -2.542559521093282E+01  -2.542497632857260E+01  -2.542434179709851E+01
  -2.542369122127270E+01  -2.542302419589909E+01  -2.542234030557370E+01
  -2.542163912442872E+01  -2.542092021587039E+01  -2.542018313231024E+01
  -2.541942741488969E+01  -2.541865259319792E+01  -2.541785818498263E+01
  -2.541704369585378E+01  -2.541620861897988E+01  -2.541535243477686E+01
  -2.541447461058924E+01  -2.541357460036338E+01  -2.541265184431283E+01
  -2.541170576857518E+01  -2.541073578486073E+01  -2.540974129009235E+01
  -2.540872166603648E+01  -2.540767627892519E+01  -2.540660447906890E+01
  -2.540550560045948E+01  -2.540437896036387E+01  -2.540322385890753E+01
  -2.540203957864782E+01  -2.540082538413690E+01  -2.539958052147401E+01
  -2.539830421784677E+01  -2.539699568106133E+01  -2.539565409906112E+01
  -2.539427863943380E+01  -2.539286844890636E+01  -2.539142265282783E+01
  -2.538994035463958E+01  -2.538842063533273E+01  -2.538686255289243E+01
  -2.538526514172879E+01  -2.538362741209398E+01  -2.538194834948538E+01
  -2.538022691403438E+01  -2.537846203988038E+01  -2.537665263452994E+01
  -2.537479757820046E+01  -2.537289572314820E+01  -2.537094589298031E+01
  -2.536894688195036E+01  -2.536689745423721E+01  -2.536479634320668E+01
  -2.536264225065570E+01  -2.536043384603867E+01  -2.535816976567546E+01
  -2.535584861194067E+01  -2.535346895243403E+01  -2.535102931913103E+01
  -2.534852820751391E+01  -2.534596407568218E+01  -2.534333534344238E+01
  -2.534064039137677E+01  -2.533787755989024E+01  -2.533504514823532E+01
  -2.533214141351449E+01  -2.532916456965966E+01  -2.532611278638804E+01
  -2.532298418813424E+01  -2.531977685295788E+01  -2.531648881142633E+01
  -2.531311804547211E+01  -2.530966248722439E+01  -2.530612001781417E+01
  -2.530248846615259E+01  -2.529876560768182E+01  -2.529494916309817E+01
  -2.529103679704675E+01  -2.528702611678719E+01  -2.528291467083003E+01
  -2.527869994754311E+01  -2.527437937372748E+01  -2.526995031316232E+01
  -2.526541006511837E+01  -2.526075586283934E+01  -2.525598487199063E+01
  -2.525109418907513E+01  -2.524608083981529E+01  -2.524094177750111E+01
  -2.523567388130348E+01  -2.523027395455241E+01  -2.522473872297955E+01
  -2.521906483292462E+01  -2.521324884950518E+01  -2.520728725474933E+01
  -2.520117644569078E+01  -2.519491273242599E+01  -2.518849233613274E+01
  -2.518191138704989E+01  -2.517516592241788E+01  -2.516825188437941E+01
  -2.516116511784024E+01  -2.515390136828956E+01  -2.514645627957956E+01
  -2.513882539166419E+01  -2.513100413829653E+01  -2.512298784468482E+01
  -2.511477172510671E+01  -2.510635088048181E+01  -2.509772029590231E+01
  -2.508887483812161E+01  -2.507980925300105E+01  -2.507051816291460E+01
  -2.506099606411183E+01  -2.505123732403916E+01  -2.504123617861972E+01
  -2.503098672949200E+01  -2.502048294120782E+01  -2.500971863838996E+01
  -2.499868750285005E+01  -2.498738307066734E+01  -2.497579872922910E+01
  -2.496392771423342E+01  -2.495176310665552E+01  -2.493929782967850E+01
  -2.492652464558976E+01  -2.491343615264451E+01  -2.490002478189780E+01
  -2.488628279400659E+01  -2.487220227600394E+01  -2.485777513804701E+01
  -2.484299311014118E+01  -2.482784773884260E+01  -2.481233038394171E+01
  -2.479643221513054E+01  -2.478014420865682E+01  -2.476345714396800E+01
  -2.474636160034886E+01  -2.472884795355643E+01  -2.471090637245625E+01
  -2.469252681566436E+01  -2.467369902819976E+01  -2.465441253815224E+01
  -2.463465665337116E+01  -2.461442045818075E+01  -2.459369281012819E+01
  -2.457246233677102E+01  -2.455071743251090E+01  -2.452844625548111E+01
  -2.450563672449589E+01  -2.448227651606990E+01  -2.445835306151697E+01
  -2.443385354413753E+01  -2.440876489650494E+01  -2.438307379786148E+01
  -2.435676667163531E+01  -2.432982968309061E+01  -2.430224873712340E+01
  -2.427400947621688E+01  -2.424509727857026E+01  -2.421549725641637E+01
  -2.418519425454371E+01  -2.415417284903998E+01  -2.412241734627452E+01
  -2.408991178213845E+01  -2.405663992156196E+01  -2.402258525832950E+01
  -2.398773101521437E+01  -2.395206014445552E+01  -2.391555532860054E+01
  -2.387819898173965E+01  -2.383997325115710E+01  -2.380086001942742E+01
  -2.376084090698509E+01  -2.371989727519805E+01  -2.367801022997608E+01
  -2.363516062594692E+01  -2.359132907123441E+01  -2.354649593287413E+01
  -2.350064134290362E+01  -2.345374520516565E+01  -2.340578720286466E+01
  -2.335674680691776E+01  -2.330660328514336E+01  -2.325533571233202E+01
  -2.320292298124542E+01  -2.314934381459110E+01  -2.309457677802191E+01
  -2.303860029421060E+01  -2.298139265805143E+01  -2.292293205304200E+01
  -2.286319656889966E+01  -2.280216422046832E+01  -2.273981296797241E+01
  -2.267612073867582E+01  -2.261106545000437E+01  -2.254462503419150E+01
  -2.247677746450705E+01  -2.240750078312929E+01  -2.233677313072138E+01
  -2.226457277777197E+01  -2.219087815776091E+01  -2.211566790220914E+01
  -2.203892087767148E+01  -2.196061622473001E+01  -2.188073339904318E+01
  -2.179925221450474E+01  -2.171615288856336E+01  -2.163141608975062E+01
  -2.154502298746227E+01  -2.145695530403250E+01  -2.136719536913689E+01
  -2.127572617655392E+01  -2.118253144330862E+01  -2.108759567121556E+01
  -2.099090421082975E+01  -2.089244332780652E+01  -2.079220027166112E+01
  -2.069016334690860E+01  -2.058632198655379E+01  -2.048066682788765E+01
  -2.037318979053416E+01  -2.026388415667655E+01  -2.015274465337614E+01
  -2.003976753688134E+01  -1.992495067880483E+01  -1.980829365402979E+01
  -1.968979783018479E+01  -1.956946645850559E+01  -1.944730476588104E+01
  -1.932332004785488E+01  -1.919752176233248E+01  -1.906992162371492E+01
  -1.894053369715632E+01  -1.880937449261379E+01  -1.867646305832982E+01
  -1.854182107335910E+01  -1.840547293872155E+01  -1.826744586673303E+01
  -1.812776996803542E+01  -1.798647833581601E+01  -1.784360712667580E+01
  -1.769919563757522E+01  -1.755328637825445E+01  -1.740592513849599E+01
  -1.725716104956573E+01  -1.710704663914061E+01  -1.695563787900144E+01
  -1.680299422474178E+01  -1.664917864671786E+01  -1.649425765143832E+01
  -1.633830116201012E+01  -1.618138166587392E+01  -1.602357380803721E+01
  -1.586495442777438E+01  -1.570560257761730E+01  -1.554559953841617E+01
  -1.538502883072654E+01  -1.522397622274248E+01  -1.506252973491839E+01
  -1.490077964129576E+01  -1.473881846737520E+01  -1.457674098414294E+01
  -1.441464419757582E+01  -1.425262733261276E+01  -1.409079181019760E+01
  -1.392924121558180E+01  -1.376808125563712E+01  -1.360741970248988E+01
  -1.344736632037419E+01  -1.328803277223727E+01  -1.312952927001025E+01
  -1.297195339311712E+01  -1.281539710840992E+01  -1.265994914099212E+01
  -1.250569440118888E+01  -1.235271338155394E+01  -1.220108152414477E+01
  -1.205086855842178E+01  -1.190213781027315E+01  -1.175494603110979E+01
  -1.160934444250116E+01  -1.146537661024736E+01  -1.132307722044497E+01
  -1.118247137044994E+01  -1.104357386549213E+01  -1.090638852723254E+01
  -1.077090627649936E+01  -1.063710716194210E+01  -1.050497025266317E+01
  -1.037447488108526E+01  -1.024560063870250E+01  -1.011832737349655E+01
  -9.992635185647046E+00  -9.868504424392356E+00  -9.745915684644523E+00
  -9.624849803716669E+00  -9.505287858119358E+00  -9.387211160421531E+00
  -9.270601256172961E+00  -9.155439920884241E+00  -9.041709157061629E+00
  -8.929391191293931E+00  -8.818468471388494E+00  -8.708923663554728E+00
  -8.600739649632256E+00  -8.493899524362488E+00  -8.388386592701554E+00
  -8.284184367172971E+00  -8.181276565259038E+00  -8.079647106829178E+00
  -7.979280111604519E+00  -7.880159896657378E+00  -7.782270973944692E+00
  -7.685598047874873E+00  -7.590126012906585E+00  -7.495839951159954E+00
  -7.402725130108601E+00  -7.310767000303953E+00  -7.219951193022126E+00
  -7.130263518045918E+00  -7.041689961444353E+00  -6.954216683380179E+00
  -6.867830015945225E+00  -6.782516461023072E+00  -6.698262688178421E+00
  -6.615055532573197E+00  -6.532881992908520E+00  -6.451729229392559E+00
  -6.371584561733775E+00  -6.292435467159083E+00  -6.214269578456877E+00
  -6.137074682044293E+00  -6.060838716058644E+00  -5.985549768472604E+00
  -5.911196075232716E+00  -5.837766018421245E+00  -5.765248124440703E+00
  -5.693631062221062E+00  -5.622903641449243E+00  -5.553054810820493E+00
  -5.484073656311684E+00  -5.415949399475860E+00  -5.348671395758131E+00
  -5.282229132832442E+00  -5.216612228958939E+00  -5.151810431361872E+00
  -5.087813614627514E+00  -5.024611779122070E+00  -4.962195049429244E+00
  -4.900553672807116E+00  -4.839678017664342E+00  -4.779558572055126E+00
  -4.720185942192982E+00  -4.661550850982985E+00  -4.603644136572121E+00
  -4.546456750917819E+00  -4.489979758374095E+00  -4.434204334295386E+00
  -4.379121763657699E+00  -4.324723439696801E+00  -4.271000862563482E+00
  -4.217945637995356E+00  -4.165549476005284E+00  -4.113804189586056E+00
  -4.062701693431102E+00  -4.012234002671214E+00  -3.962393231626830E+00
  -3.913171592575905E+00  -3.864561394537086E+00  -3.816555042067932E+00
  -3.769145034078157E+00  -3.722323962657524E+00  -3.676084511918367E+00
  -3.630419456852477E+00  -3.585321662202141E+00  -3.540784081345290E+00
  -3.496799755194406E+00  -3.453361811109162E+00  -3.410463461822581E+00
  -3.368098004380466E+00  -3.326258819094094E+00  -3.284939368505835E+00
  -3.244133196367676E+00  -3.203833926632439E+00  -3.164035262457461E+00
  -3.124730985220752E+00  -3.085914953549278E+00  -3.047581102359371E+00
  -3.009723441909076E+00  -2.972336056862184E+00  -2.935413105364006E+00
  -2.898948818128525E+00  -2.862937497536950E+00  -2.827373516747469E+00
  -2.792251318816004E+00  -2.757565415827969E+00  -2.723310388040733E+00
  -2.689480883036791E+00  -2.656071614887456E+00  -2.623077363326881E+00
  -2.590492972936425E+00  -2.558313352339070E+00  -2.526533473403899E+00
  -2.495148370460458E+00  -2.464153139522820E+00  -2.433542937523372E+00
  -2.403312981556036E+00  -2.373458548128947E+00  -2.343974972426414E+00
  -2.314857647579997E+00  -2.286102023948715E+00  -2.257703608408117E+00
  -2.229657963648243E+00  -2.201960707480291E+00  -2.174607512151870E+00
  -2.147594103670805E+00  -2.120916261137292E+00  -2.094569816084384E+00
  -2.068550651826677E+00  -2.042854702817031E+00  -2.017477954011363E+00
  -1.992416440241251E+00  -1.967666245594389E+00  -1.943223502802718E+00
  -1.919084392638140E+00  -1.895245143315784E+00  -1.871702029904627E+00
  -1.848451373745477E+00  -1.825489541876191E+00  -1.802812946463986E+00
  -1.780418044244864E+00  -1.758301335969944E+00  -1.736459365858704E+00
  -1.714888721059029E+00  -1.693586031113909E+00  -1.672547967434832E+00
  -1.651771242781660E+00  -1.631252610749001E+00  -1.610988865258962E+00
  -1.590976840060168E+00  -1.571213408233056E+00  -1.551695481701264E+00
  -1.532420010749123E+00  -1.513383983545141E+00  -1.494584425671378E+00
  -1.476018399658713E+00  -1.457683004527830E+00  -1.439575375335952E+00
  -1.421692682729193E+00  -1.404032132500445E+00  -1.386590965152803E+00
  -1.369366455468364E+00  -1.352355912082420E+00  -1.335556677062930E+00
  -1.318966125495200E+00  -1.302581665071752E+00  -1.286400735687254E+00
  -1.270420809038505E+00  -1.254639388229399E+00  -1.239054007380737E+00
  -1.223662232468906E+00  -1.208461655941709E+00  -1.193449904018297E+00
  -1.178624632677651E+00  -1.163983522110411E+00  -1.149524286356456E+00
  -1.135244666129603E+00  -1.121142430209010E+00  -1.107215375090550E+00
  -1.093461324642495E+00  -1.079878129765505E+00  -1.066463668056815E+00
  -1.053215843478591E+00  -1.040132582281936E+00  -1.027211847989612E+00
  -1.014451617626385E+00  -1.001849897380909E+00  -9.894047182093469E-01
  -9.771141355277135E-01  -9.649762289080126E-01  -9.529891017781851E-01
  -9.411508811257494E-01  -9.294597183068279E-01  -9.179137842534985E-01
  -9.065112760964456E-01  -8.952504121705749E-01  -8.841294329429867E-01
  -8.731466007380497E-01  -8.623001994658910E-01  -8.515885343542423E-01
  -8.410099316836405E-01  -8.305627385258953E-01  -8.202453224858194E-01
  -8.100560714461698E-01  -7.999933933157385E-01  -7.900557157805987E-01
  -7.802414860584163E-01  -7.705491706558291E-01  -7.609772551288400E-01
  -7.515242438461711E-01  -7.421886597555807E-01  -7.329690441530603E-01
  -7.238639564549139E-01  -7.148719739726674E-01  -7.059916916907611E-01
  -6.972217220470253E-01  -6.885606947158591E-01  -6.800072563941203E-01
  -6.715600705896719E-01  -6.632178174135287E-01  -6.549791933696063E-01
  -6.468429111572135E-01  -6.388076994656996E-01  -6.308723027768931E-01
  -6.230354811689135E-01  -6.152960101224437E-01  -6.076526803293849E-01
  -6.001042975039051E-01  -5.926496821958334E-01  -5.852876696063587E-01
  -5.780171094060380E-01  -5.708368655550471E-01  -5.637458161256746E-01
  -5.567428531270225E-01  -5.498268823318726E-01  -5.429968231057198E-01
  -5.362516082379127E-01  -5.295901837749041E-01  -5.230115088555710E-01
  -5.165145555485706E-01  -5.100983086917330E-01  -5.037617657334313E-01
  -4.975039365759358E-01  -4.913238434207108E-01  -4.852205206156255E-01
  -4.791930145040761E-01  -4.732403832759688E-01  -4.673616968205624E-01
  -4.615560365811399E-01  -4.558224954114753E-01  -4.501601774340978E-01
  -4.445681979003023E-01  -4.390456830519089E-01  -4.335917699847385E-01
  -4.282056065137766E-01  -4.228863510400246E-01  -4.176331724189917E-01
  -4.124452498308295E-01  -4.073217726520806E-01  -4.022619403290104E-01
  -3.972649622525255E-01  -3.923300576346345E-01  -3.874564553864497E-01
  -3.826433939977061E-01  -3.778901214177681E-01  -3.731958949381257E-01
  -3.685599810763404E-01  -3.639816554614385E-01  -3.594602027207296E-01
  -3.549949163680228E-01  -3.505850986932417E-01  -3.462300606534024E-01
  -3.419291217649501E-01  -3.376816099974346E-01  -3.334868616684987E-01
  -3.293442213401837E-01  -3.252530417165092E-01  -3.212126835423345E-01
  -3.172225155034765E-01  -3.132819141280591E-01  -3.093902636891021E-01
  -3.055469561083058E-01  -3.017513908610410E-01  -2.980029748825168E-01
  -2.943011224751090E-01  -2.906452552168490E-01  -2.870348018710390E-01
  -2.834691982969975E-01  -2.799478873619131E-01  -2.764703188537868E-01
  -2.730359493954652E-01  -2.696442423597326E-01  -2.662946677854635E-01
  -2.629867022948173E-01  -2.597198290114546E-01  -2.564935374797797E-01
  -2.533073235851761E-01  -2.501606894752400E-01  -2.470531434819906E-01
  -2.439842000450434E-01  -2.409533796357434E-01  -2.379602086822350E-01
  -2.350042194954664E-01  -2.320849501961143E-01  -2.292019446424104E-01
  -2.263547523588723E-01  -2.235429284659126E-01  -2.207660336103269E-01
  -2.180236338966452E-01  -2.153153008193320E-01  -2.126406111958344E-01
  -2.099991471004570E-01  -2.073904957990602E-01  -2.048142496845717E-01
  -2.022700062132937E-01  -1.997573678420085E-01  -1.972759419658582E-01
  -1.948253408570007E-01  -1.924051816040276E-01  -1.900150860521312E-01
  -1.876546807440195E-01  -1.853235968615606E-01  -1.830214701681546E-01
  -1.807479409518228E-01  -1.785026539689989E-01  -1.762852583890246E-01
  -1.740954077393286E-01  -1.719327598512915E-01  -1.697969768067813E-01
  -1.676877248853516E-01  -1.656046745120987E-01  -1.635475002061638E-01
  -1.615158805298757E-01  -1.595094980385273E-01  -1.575280392307718E-01
  -1.555711944996396E-01  -1.536386580841600E-01  -1.517301280215861E-01
  -1.498453061002132E-01  -1.479838978127807E-01  -1.461456123104574E-01
  -1.443301623573932E-01  -1.425372642858390E-01  -1.407666379518241E-01
  -1.390180066913808E-01  -1.372910972773177E-01  -1.355856398765251E-01
  -1.339013680078139E-01  -1.322380185002788E-01  -1.305953314521744E-01
  -1.289730501903079E-01  -1.273709212299313E-01  -1.257886942351348E-01
  -1.242261219797320E-01  -1.226829603086281E-01  -1.211589680996732E-01
  </PP_LOCAL>
  <PP_NONLOCAL>
    <PP_BETA.1 index="1" label="2S" angular_momentum="0" cutoff_radius_index="759" cutoff_radius="1.0000000000000000" ultrasoft_cutoff_radius="1.3000000000000000">
   1.155727518489580E-03   1.170264771133328E-03   1.184984879525286E-03
   1.199890143693053E-03   1.216494995628287E-03   1.228422237124577E-03
   1.242431201277983E-03   1.259479673757988E-03   1.271779864886607E-03
   1.292974782404879E-03   1.302495314375735E-03   1.330527729564546E-03
   1.340600413692661E-03   1.359063572111061E-03   1.376191760835921E-03
   1.396511897523905E-03   1.414145405172679E-03   1.426514603529494E-03
   1.447628621350602E-03   1.468159849375969E-03   1.486666969602105E-03
   1.497283008610573E-03   1.527651549324535E-03   1.535503246328174E-03
   1.561861902755465E-03   1.581299590737717E-03   1.599423879938250E-03
   1.624602262819200E-03   1.643245951254910E-03   1.655590101765594E-03
   1.681786162900975E-03   1.697996551337108E-03   1.723961932111703E-03
   1.751574708835663E-03   1.771942324701542E-03   1.797064609184662E-03
   1.803840125405756E-03   1.838401671785783E-03   1.860900827279549E-03
   1.882171086541373E-03   1.909048701988353E-03   1.926933210778359E-03
   1.949758347597086E-03   1.977940593061639E-03   2.004278345767357E-03
   2.028148990817102E-03   2.054408869013535E-03   2.080073189510256E-03
   2.103937215507279E-03   2.134102352229883E-03   2.155674326450224E-03
   2.185017822523588E-03   2.218408714048409E-03   2.244974603426070E-03
   2.268752462901980E-03   2.298790919609328E-03   2.326273682968866E-03
   2.351711996053912E-03   2.384402755882198E-03   2.421341461296134E-03
   2.447123074971053E-03   2.476046365137041E-03   2.506484898776196E-03
   2.538528259701550E-03   2.574426569157906E-03   2.603768365192438E-03
   2.635422589442993E-03   2.669912010123371E-03   2.701005737694440E-03
   2.740466108929918E-03   2.772620356871786E-03   2.806365309441783E-03
   2.844625578983184E-03   2.876498223156249E-03   2.916479194911809E-03
   2.953270461341584E-03   2.989595973661247E-03   3.023376021555169E-03
   3.066640332780424E-03   3.106205341771973E-03   3.140250351368612E-03
   3.183779551324845E-03   3.218702199218132E-03   3.259533710615520E-03
   3.303684612512348E-03   3.345335103733860E-03   3.388057243911002E-03
   3.431365753034737E-03   3.472486064723945E-03   3.519051803429263E-03
   3.561157592459868E-03   3.604140329496491E-03   3.651298621153987E-03
   3.694288159639902E-03   3.742920470774735E-03   3.788659330136446E-03
   3.837159916957045E-03   3.886944532590142E-03   3.934218219001417E-03
   3.983791882328058E-03   4.032193411609097E-03   4.084498867739206E-03
   4.138532293701758E-03   4.184979950332457E-03   4.241542994384728E-03
   4.294501208043144E-03   4.347276201710160E-03   4.404479291579333E-03
   4.457431247575583E-03   4.516607431923669E-03   4.570741126497524E-03
   4.630056917918568E-03   4.685787151762544E-03   4.746211734063976E-03
   4.804749028403443E-03   4.865233659577972E-03   4.924458440286161E-03
   4.991569452879152E-03   5.052503038151024E-03   5.113831383716794E-03
   5.179551859728793E-03   5.244304073014017E-03   5.310174752507446E-03
   5.376754275130124E-03   5.444052248775866E-03   5.516182286316507E-03
   5.583114034147463E-03   5.654500208831459E-03   5.725039969864953E-03
   5.795554483043808E-03   5.868063388635769E-03   5.942416194820610E-03
   6.019564921299680E-03   6.094490318326651E-03   6.168676729832623E-03
   6.248447574497717E-03   6.328151690188744E-03   6.406372339448074E-03
   6.485123009297211E-03   6.568877406557816E-03   6.650227352490101E-03
   6.736445453893902E-03   6.818255644137405E-03   6.905383056707848E-03
   6.990989351237265E-03   7.078733004225790E-03   7.170858024545812E-03
   7.259278677928194E-03   7.350110829836110E-03   7.441873983471958E-03
   7.535641037824448E-03   7.631689930718721E-03   7.726488007564591E-03
   7.825427442646138E-03   7.921940082172951E-03   8.021583025912493E-03
   8.123542582821663E-03   8.224200867015030E-03   8.329427377527732E-03
   8.433764321644999E-03   8.539396083975803E-03   8.646427008874080E-03
   8.755483388276031E-03   8.865929708401610E-03   8.977550519467692E-03
   9.091645805133330E-03   9.204436593367116E-03   9.320599014646214E-03
   9.437639468792058E-03   9.556124571013069E-03   9.676253096369769E-03
   9.799840113244085E-03   9.921332761033463E-03   1.004677644584173E-02
   1.017331967435020E-02   1.030078285579528E-02   1.043037222135679E-02
   1.056145549570642E-02   1.069488335382041E-02   1.083033543756706E-02
   1.096463616591126E-02   1.110445262299453E-02   1.124268369504355E-02
   1.138360658305426E-02   1.152767838172830E-02   1.167233202677187E-02
   1.182011914037440E-02   1.196750372739297E-02   1.211915189308510E-02
   1.227025650573188E-02   1.242527635356427E-02   1.258175521531790E-02
   1.273991057732038E-02   1.289988330608149E-02   1.306291757950395E-02
   1.322611189673162E-02   1.339257979739461E-02   1.356090303056900E-02
   1.373234099964105E-02   1.390522427681240E-02   1.407890976372350E-02
   1.425634063889480E-02   1.443641205948376E-02   1.461710349807088E-02
   1.480137788861391E-02   1.498715083940416E-02   1.517668757937418E-02
   1.536683834779495E-02   1.556047919587344E-02   1.575653751059658E-02
   1.595397058827541E-02   1.615418412832637E-02   1.635805088022502E-02
   1.656393282435809E-02   1.677196976233275E-02   1.698353652733209E-02
   1.719711488750364E-02   1.741259173815735E-02   1.763218040369341E-02
   1.785407582271015E-02   1.807847642087879E-02   1.830536804765637E-02
   1.853592667727111E-02   1.876949460147204E-02   1.900584527431315E-02
   1.924362765062138E-02   1.948629661493140E-02   1.973105851261203E-02
   1.997921018932725E-02   2.023110446351795E-02   2.048561498566626E-02
   2.074305034642121E-02   2.100373524595023E-02   2.126854911114973E-02
   2.153537071177114E-02   2.180641052785481E-02   2.208119813679099E-02
   2.235827816321523E-02   2.264010024371266E-02   2.292414864571835E-02
   2.321258374033053E-02   2.350458003179767E-02   2.380017488585162E-02
   2.409995971509615E-02   2.440274474581616E-02   2.470987398346525E-02
   2.502089314217026E-02   2.533561489981895E-02   2.565437346630972E-02
   2.597656709449647E-02   2.630365083900976E-02   2.663407388531791E-02
   2.696955044194715E-02   2.730821919416582E-02   2.765178081214081E-02
   2.799939404862073E-02   2.835157923914133E-02   2.870820471585600E-02
   2.906916886710942E-02   2.943489452892090E-02   2.980519354527367E-02
   3.017984454475720E-02   3.055982567924653E-02   3.094425496338538E-02
   3.133350297643700E-02   3.172745033783686E-02   3.212653813551247E-02
   3.253037489744726E-02   3.293978616722359E-02   3.335402186742398E-02
   3.377365864261028E-02   3.419818974093847E-02   3.462827610037778E-02
   3.506376967013214E-02   3.550462916986019E-02   3.595125570774904E-02
   3.640366417520502E-02   3.686143250203777E-02   3.732511804696381E-02
   3.779442906990127E-02   3.826976072682919E-02   3.875100625706596E-02
   3.923841831495434E-02   3.973180499699680E-02   4.023154893006531E-02
   4.073743053920920E-02   4.124964426168187E-02   4.176856295602205E-02
   4.229383490482608E-02   4.282563070105283E-02   4.336420667327312E-02
   4.390980011210432E-02   4.446199251490146E-02   4.502106833868602E-02
   4.558719836969471E-02   4.616053540481779E-02   4.674094709810683E-02
   4.732895647621893E-02   4.792409338353476E-02   4.852667004466626E-02
   4.913700808023336E-02   4.975476597056305E-02   5.038066917797446E-02
   5.101397901405491E-02   5.165564307868342E-02   5.230514678259723E-02
   5.296278647595143E-02   5.362894336677071E-02   5.430328954440888E-02
   5.498604235857130E-02   5.567766528113172E-02   5.637765338240541E-02
   5.708676546028935E-02   5.780449672251375E-02   5.853114879793564E-02
   5.926726444777008E-02   6.001241141202485E-02   6.076704265909072E-02
   6.153099293606878E-02   6.230484183623819E-02   6.308817699441427E-02
   6.388139959154948E-02   6.468460552051347E-02   6.549789223583602E-02
   6.632145265766454E-02   6.715517036987695E-02   6.799960148580819E-02
   6.885446673002971E-02   6.972020336694040E-02   7.059686328679504E-02
   7.148426171882871E-02   7.238290681322734E-02   7.329311467120814E-02
   7.421420522184441E-02   7.514740401093878E-02   7.609187570588993E-02
   7.704858992707209E-02   7.801721003101747E-02   7.899788569629429E-02
   7.999090614434845E-02   8.099634199494865E-02   8.201460510933956E-02
   8.304553033230899E-02   8.408945171921545E-02   8.514636087422733E-02
   8.621659599242637E-02   8.730025899832494E-02   8.839750010887393E-02
   8.950841968466161E-02   9.063347063105276E-02   9.177251337728443E-02
   9.292592979966496E-02   9.409373338723359E-02   9.527633066121766E-02
   9.647357847104665E-02   9.768589756458113E-02   9.891364461455598E-02
   1.001563428432650E-01   1.014150824164854E-01   1.026892126722965E-01
   1.039796532530710E-01   1.052860191550753E-01   1.066090453376285E-01
   1.079483531923069E-01   1.093045580457677E-01   1.106778215421746E-01
   1.120681784311950E-01   1.134760522576519E-01   1.149017082385724E-01
   1.163448628400987E-01   1.178063521658714E-01   1.192861849977964E-01
   1.207844086274452E-01   1.223014469707184E-01   1.238374124951669E-01
   1.253927892429711E-01   1.269675158363412E-01   1.285620019791427E-01
   1.301763140787511E-01   1.318109505429224E-01   1.334660479029015E-01
   1.351418558264825E-01   1.368385015271816E-01   1.385564992936850E-01
   1.402958987540508E-01   1.420571375321114E-01   1.438403631596454E-01
   1.456457513477982E-01   1.474739597173098E-01   1.493247440964289E-01
   1.511989776877858E-01   1.530963118908328E-01   1.550174924990788E-01
   1.569626131442536E-01   1.589320960710179E-01   1.609261684459629E-01
   1.629449313595046E-01   1.649890828080327E-01   1.670586707555248E-01
   1.691540872385584E-01   1.712755880231072E-01   1.734237095823623E-01
   1.755984111604398E-01   1.778002469805156E-01   1.800295610381060E-01
   1.822865771012605E-01   1.845718302758215E-01   1.868854186468720E-01
   1.892278332205812E-01   1.915994842255984E-01   1.940004748004025E-01
   1.964314396174149E-01   1.988925996057649E-01   2.013843123314594E-01
   2.039069677950334E-01   2.064610636961159E-01   2.090468174326059E-01
   2.116646940166245E-01   2.143149800760860E-01   2.169981982347569E-01
   2.197147336547438E-01   2.224648682478811E-01   2.252490834018932E-01
   2.280678507131171E-01   2.309214964233615E-01   2.338104406780221E-01
   2.367350422017473E-01   2.396959463344643E-01   2.426933576421462E-01
   2.457278719901375E-01   2.487998303734713E-01   2.519096786794783E-01
   2.550579647324014E-01   2.582450102479363E-01   2.614713604262562E-01
   2.647374633193493E-01   2.680437627400067E-01   2.713907434487126E-01
   2.747789471310931E-01   2.782087376100399E-01   2.816807280970508E-01
   2.851952214096372E-01   2.887529140591525E-01   2.923542251239120E-01
   2.959997159643386E-01   2.996898092109603E-01   3.034249873432096E-01
   3.072058934644133E-01   3.110330557972567E-01   3.149068589582420E-01
   3.188279254600026E-01   3.227969041858785E-01   3.268141047763677E-01
   3.308802735468177E-01   3.349958749683282E-01   3.391614781155710E-01
   3.433776172403746E-01   3.476449322144610E-01   3.519639542324278E-01
   3.563352517431149E-01   3.607593593444598E-01   3.652370058850600E-01
   3.697686226844752E-01   3.743549515345279E-01   3.789963941200902E-01
   3.836937367808595E-01   3.884474782638279E-01   3.932583155448484E-01
   3.981267550712744E-01   4.030535109272861E-01   4.080391677503528E-01
   4.130842761952884E-01   4.181896145187807E-01   4.233556905003546E-01
   4.285832230532307E-01   4.338727855195614E-01   4.392250672440028E-01
   4.446406650921020E-01   4.501202453382653E-01   4.556644928900297E-01
   4.612740463885956E-01   4.669494851977198E-01   4.726915601825610E-01
   4.785009026146625E-01   4.843781644452037E-01   4.903239773402888E-01
   4.963390761002771E-01   5.024240793720693E-01   5.085796427142952E-01
   5.148064289226610E-01   5.211051322706126E-01   5.274763846031902E-01
   5.339208469968142E-01   5.404392449963211E-01   5.470321707803407E-01
   5.537003359872728E-01   5.604443425559325E-01   5.672649034047765E-01
   5.741626453168749E-01   5.811382012285620E-01   5.881922731728579E-01
   5.953254456197214E-01   6.025383964709192E-01   6.098317496135337E-01
   6.172060960825121E-01   6.246621583412946E-01   6.322004471353324E-01
   6.398216050860412E-01   6.475262534057364E-01   6.553149933295686E-01
   6.631883842127166E-01   6.711469767255522E-01   6.791913975796007E-01
   6.873221894457728E-01   6.955398499715741E-01   7.038449554405588E-01
   7.122379582484228E-01   7.207194341269627E-01   7.292898247208015E-01
   7.379496541814561E-01   7.466993062157030E-01   7.555392366686959E-01
   7.644699217748467E-01   7.734916579862556E-01   7.826049241624133E-01
   7.918100094663600E-01   8.011072604210412E-01   8.104970105697902E-01
   8.199795050517409E-01   8.295550302611048E-01   8.392238067261104E-01
   8.489859745028525E-01   8.588418089983492E-01   8.687913472672975E-01
   8.788347554266451E-01   8.889720720340506E-01   8.992033242301787E-01
   9.095285099162211E-01   9.199475928450767E-01   9.304604652292738E-01
   9.410669971809114E-01   9.517670157906792E-01   9.625603087434769E-01
   9.734465806859731E-01   9.844255330566938E-01   9.954967741081333E-01
   1.006659879253789E+00   1.017914344768599E+00   1.029259656937484E+00
   1.040695211657820E+00   1.052220302414852E+00   1.063834248447165E+00
   1.075536197072182E+00   1.087325347189534E+00   1.099200710081249E+00
   1.111161282685828E+00   1.123205981726755E+00   1.135333633222956E+00
   1.147542996536160E+00   1.159832752104336E+00   1.172201447716645E+00
   1.184647611087755E+00   1.197169633835728E+00   1.209765824577261E+00
   1.222434395485948E+00   1.235173480653273E+00   1.247981077234968E+00
   1.260855132141103E+00   1.273793392871852E+00   1.286793621842833E+00
   1.299853377420916E+00   1.312970144843149E+00   1.326141290059866E+00
   1.339364033971918E+00   1.352635554527041E+00   1.365952811441815E+00
   1.379312699464037E+00   1.392711969679425E+00   1.406147272330756E+00
   1.419615090089437E+00   1.433111789121995E+00   1.446633629283909E+00
   1.460176709804770E+00   1.473736996012391E+00   1.487310337406385E+00
   1.500892415883897E+00   1.514478838625223E+00   1.528065014127833E+00
   1.541646227248265E+00   1.555217690262893E+00   1.568774397761104E+00
   1.582311258137878E+00   1.595823049148464E+00   1.609304402041090E+00
   1.622749839128048E+00   1.636153751010582E+00   1.649510432972590E+00
   1.662814001715191E+00   1.676058550169969E+00   1.689237995515867E+00
   1.702346210067688E+00   1.715376905458498E+00   1.728323782000459E+00
   1.741180419581084E+00   1.753940333243463E+00   1.766596984583586E+00
   1.779143785233600E+00   1.791574096100874E+00   1.803881275845697E+00
   1.816058651047939E+00   1.828099550924861E+00   1.839997310475781E+00
   1.851745317440361E+00   1.863336981540129E+00   1.874765807971272E+00
   1.886025340922686E+00   1.897109269034473E+00   1.908011385432530E+00
   1.918725615350667E+00   1.929246079095179E+00   1.939567070439125E+00
   1.949683105185301E+00   1.959588933610320E+00   1.969279577132937E+00
   1.978750349068065E+00   1.987996890498124E+00   1.997015186312836E+00
   2.005801603665816E+00   2.014352909348617E+00   2.022666330327695E+00
   2.030739520176382E+00   2.038570663700483E+00   2.046158449551086E+00
   2.053502124955912E+00   2.060601514856302E+00   2.067457032062578E+00
   2.074069747550737E+00   2.080441363717341E+00   2.086574232627328E+00
   2.092471429037658E+00   2.098136693736677E+00   2.103574490483595E+00
   2.108789983851608E+00   2.113789046568030E+00   2.118578247546907E+00
   2.123164859548638E+00   2.127556797311286E+00   2.131762614848213E+00
   2.135791452223486E+00   2.139652992464050E+00   2.143357394755810E+00
   2.146915195656817E+00   2.150337268425034E+00   2.153634652366861E+00
   2.156818480911198E+00   2.159899796352164E+00   2.162889433473651E+00
   2.165797771272793E+00   2.168634589827519E+00   2.171408784857846E+00
   2.174128132937000E+00   2.176798990984594E+00   2.179425974639003E+00
   2.182011609103199E+00   2.184555942298232E+00   2.187056115159550E+00
   2.189505892059543E+00   2.191895186633730E+00   2.194209490588747E+00
   2.196429304742935E+00   2.198529508899924E+00   2.200478699021460E+00
   2.202238444402411E+00   2.203762563728219E+00   2.204996282200653E+00
   2.205875401799375E+00   2.206325416684592E+00   2.206260551493699E+00
   2.205582805868204E+00   2.204180942709854E+00   2.201929434488818E+00
   2.198687425787014E+00   2.194297612644078E+00   2.188585169618960E+00
   2.181356635543011E+00   2.172398829367580E+00   2.161477774750139E+00
   2.148337657163609E+00   2.132699852852539E+00   2.114261990121349E+00
   2.092697144537155E+00   2.067653121965478E+00   2.038751865687175E+00
   2.005589091727160E+00   1.967734059875610E+00   1.924729622202221E+00
   1.876092539040698E+00   1.821314106363715E+00   1.759861154788751E+00
   1.691177486766605E+00   1.614685724558328E+00   1.529789764251362E+00
   1.435877751233377E+00   1.332325768343324E+00   1.218502217897765E+00
   1.093773018761354E+00   9.575076920863381E-01   8.090864048084114E-01
   6.479080529367494E-01   4.733995111077789E-01   2.850260785272596E-01
   8.230326994095094E-02  -1.351899869610094E-01  -3.677966424499957E-01
  -6.157652124792961E-01  -8.792317649991759E-01  -1.158200128966165E+00
  -1.452520228345946E+00  -1.761864472441928E+00  -2.085702108023774E+00
  -2.423271530726950E+00  -2.773550416273149E+00  -3.135223740520232E+00
  -3.506649576241131E+00  -3.885822751252100E+00  -4.270336346374485E+00
  -4.657341109868000E+00  -5.043502890246852E+00  -5.424958188092006E+00
  -5.797268031426514E+00  -6.155370375619977E+00  -6.493531309053528E+00
  -6.805295414698630E+00  -7.083435678289566E+00  -7.319903460295169E+00
  -7.505751125534278E+00  -7.631142318574596E+00  -7.685555717231603E+00
  -7.660120501379062E+00  -7.539914050972881E+00  -7.313315332649779E+00
  -6.967274569908293E+00  -6.488176841027768E+00  -5.861884500424700E+00
  -5.073825910511781E+00  -4.108755496948712E+00  -2.953841025882606E+00
  -1.569571764078631E+00  -1.734472370800965E-01   1.762409004627556E-02
  -1.226498131868304E-03   7.313111325019670E-04   6.220419436264724E-04
   7.137951958319246E-04   7.811270292136163E-04   8.478683139759940E-04
   9.106365557160778E-04   9.701231342689898E-04   1.026340340179134E-03
   1.079369238888246E-03   1.129286503605808E-03   1.176167431801706E-03
   1.220090268266701E-03   1.261131639661830E-03   1.299367946804849E-03
   1.334876182984162E-03   1.367730902307694E-03   1.398007534122704E-03
   1.425778840859640E-03   1.451117128882436E-03   1.474092857527366E-03
   1.494774848089835E-03   1.513231446391482E-03   1.529526656372292E-03
   1.543725585141028E-03   1.555889118088985E-03   1.566077162931170E-03
   1.574348244036803E-03   0.000000000000000E+00   0.000000000000000E+00
   0.000000000000000E+00   0.000000000000000E+00   0.000000000000000E+00
   0.000000000000000E+00   0.000000000000000E+00   0.000000000000000E+00
   0.000000000000000E+00   0.000000000000000E+00   0.000000000000000E+00
   0.000000000000000E+00   0.000000000000000E+00   0.000000000000000E+00
   0.000000000000000E+00   0.000000000000000E+00   0.000000000000000E+00
   0.000000000000000E+00   0.000000000000000E+00   0.000000000000000E+00
   0.000000000000000E+00   0.000000000000000E+00   0.000000000000000E+00
   0.000000000000000E+00   0.000000000000000E+00   0.000000000000000E+00
   0.000000000000000E+00   0.000000000000000E+00   0.000000000000000E+00
   0.000000000000000E+00   0.000000000000000E+00   0.000000000000000E+00
   0.000000000000000E+00   0.000000000000000E+00   0.000000000000000E+00
   0.000000000000000E+00   0.000000000000000E+00   0.000000000000000E+00
   0.000000000000000E+00   0.000000000000000E+00   0.000000000000000E+00
   0.000000000000000E+00   0.000000000000000E+00   0.000000000000000E+00
   0.000000000000000E+00   0.000000000000000E+00   0.000000000000000E+00
   0.000000000000000E+00   0.000000000000000E+00   0.000000000000000E+00
   0.000000000000000E+00   0.000000000000000E+00   0.000000000000000E+00
   0.000000000000000E+00   0.000000000000000E+00   0.000000000000000E+00
   0.000000000000000E+00   0.000000000000000E+00   0.000000000000000E+00
   0.000000000000000E+00   0.000000000000000E+00   0.000000000000000E+00
   0.000000000000000E+00   0.000000000000000E+00   0.000000000000000E+00
   0.000000000000000E+00   0.000000000000000E+00   0.000000000000000E+00
   0.000000000000000E+00   0.000000000000000E+00   0.000000000000000E+00
   0.000000000000000E+00   0.000000000000000E+00   0.000000000000000E+00
   0.000000000000000E+00   0.000000000000000E+00   0.000000000000000E+00
   0.000000000000000E+00   0.000000000000000E+00   0.000000000000000E+00
   0.000000000000000E+00   0.000000000000000E+00   0.000000000000000E+00
   0.000000000000000E+00   0.000000000000000E+00   0.000000000000000E+00
   0.000000000000000E+00   0.000000000000000E+00   0.000000000000000E+00
   0.000000000000000E+00   0.000000000000000E+00   0.000000000000000E+00
   0.000000000000000E+00   0.000000000000000E+00   0.000000000000000E+00
   0.000000000000000E+00   0.000000000000000E+00   0.000000000000000E+00
   0.000000000000000E+00   0.000000000000000E+00   0.000000000000000E+00
   0.000000000000000E+00   0.000000000000000E+00   0.000000000000000E+00
   0.000000000000000E+00   0.000000000000000E+00   0.000000000000000E+00
   0.000000000000000E+00   0.000000000000000E+00   0.000000000000000E+00
   0.000000000000000E+00   0.000000000000000E+00   0.000000000000000E+00
   0.000000000000000E+00   0.000000000000000E+00   0.000000000000000E+00
   0.000000000000000E+00   0.000000000000000E+00   0.000000000000000E+00
   0.000000000000000E+00   0.000000000000000E+00   0.000000000000000E+00
   0.000000000000000E+00   0.000000000000000E+00   0.000000000000000E+00
   0.000000000000000E+00   0.000000000000000E+00   0.000000000000000E+00
   0.000000000000000E+00   0.000000000000000E+00   0.000000000000000E+00
   0.000000000000000E+00   0.000000000000000E+00   0.000000000000000E+00
   0.000000000000000E+00   0.000000000000000E+00   0.000000000000000E+00
   0.000000000000000E+00   0.000000000000000E+00   0.000000000000000E+00
   0.000000000000000E+00   0.000000000000000E+00   0.000000000000000E+00
   0.000000000000000E+00   0.000000000000000E+00   0.000000000000000E+00
   0.000000000000000E+00   0.000000000000000E+00   0.000000000000000E+00
   0.000000000000000E+00   0.000000000000000E+00   0.000000000000000E+00
   0.000000000000000E+00   0.000000000000000E+00   0.000000000000000E+00
   0.000000000000000E+00   0.000000000000000E+00   0.000000000000000E+00
   0.000000000000000E+00   0.000000000000000E+00   0.000000000000000E+00
   0.000000000000000E+00   0.000000000000000E+00   0.000000000000000E+00
   0.000000000000000E+00   0.000000000000000E+00   0.000000000000000E+00
   0.000000000000000E+00   0.000000000000000E+00   0.000000000000000E+00
   0.000000000000000E+00   0.000000000000000E+00   0.000000000000000E+00
   0.000000000000000E+00   0.000000000000000E+00   0.000000000000000E+00
   0.000000000000000E+00   0.000000000000000E+00   0.000000000000000E+00
   0.000000000000000E+00   0.000000000000000E+00   0.000000000000000E+00
   0.000000000000000E+00   0.000000000000000E+00   0.000000000000000E+00
   0.000000000000000E+00   0.000000000000000E+00   0.000000000000000E+00
   0.000000000000000E+00   0.000000000000000E+00   0.000000000000000E+00
   0.000000000000000E+00   0.000000000000000E+00   0.000000000000000E+00
   0.000000000000000E+00   0.000000000000000E+00   0.000000000000000E+00
   0.000000000000000E+00   0.000000000000000E+00   0.000000000000000E+00
   0.000000000000000E+00   0.000000000000000E+00   0.000000000000000E+00
   0.000000000000000E+00   0.000000000000000E+00   0.000000000000000E+00
   0.000000000000000E+00   0.000000000000000E+00   0.000000000000000E+00
   0.000000000000000E+00   0.000000000000000E+00   0.000000000000000E+00
   0.000000000000000E+00   0.000000000000000E+00   0.000000000000000E+00
   0.000000000000000E+00   0.000000000000000E+00   0.000000000000000E+00
   0.000000000000000E+00   0.000000000000000E+00   0.000000000000000E+00
   0.000000000000000E+00   0.000000000000000E+00   0.000000000000000E+00
   0.000000000000000E+00   0.000000000000000E+00   0.000000000000000E+00
   0.000000000000000E+00   0.000000000000000E+00   0.000000000000000E+00
   0.000000000000000E+00   0.000000000000000E+00   0.000000000000000E+00
   0.000000000000000E+00   0.000000000000000E+00   0.000000000000000E+00
   0.000000000000000E+00   0.000000000000000E+00   0.000000000000000E+00
   0.000000000000000E+00   0.000000000000000E+00   0.000000000000000E+00
   0.000000000000000E+00   0.000000000000000E+00   0.000000000000000E+00
   0.000000000000000E+00   0.000000000000000E+00   0.000000000000000E+00
   0.000000000000000E+00   0.000000000000000E+00   0.000000000000000E+00
   0.000000000000000E+00   0.000000000000000E+00   0.000000000000000E+00
   0.000000000000000E+00   0.000000000000000E+00   0.000000000000000E+00
   0.000000000000000E+00   0.000000000000000E+00   0.000000000000000E+00
   0.000000000000000E+00   0.000000000000000E+00   0.000000000000000E+00
   0.000000000000000E+00   0.000000000000000E+00   0.000000000000000E+00
   0.000000000000000E+00   0.000000000000000E+00   0.000000000000000E+00
   0.000000000000000E+00   0.000000000000000E+00   0.000000000000000E+00
   0.000000000000000E+00   0.000000000000000E+00   0.000000000000000E+00
   0.000000000000000E+00   0.000000000000000E+00   0.000000000000000E+00
   0.000000000000000E+00   0.000000000000000E+00   0.000000000000000E+00
   0.000000000000000E+00   0.000000000000000E+00   0.000000000000000E+00
   0.000000000000000E+00   0.000000000000000E+00   0.000000000000000E+00
   0.000000000000000E+00   0.000000000000000E+00   0.000000000000000E+00
   0.000000000000000E+00   0.000000000000000E+00   0.000000000000000E+00
   0.000000000000000E+00   0.000000000000000E+00   0.000000000000000E+00
   0.000000000000000E+00   0.000000000000000E+00   0.000000000000000E+00
   0.000000000000000E+00   0.000000000000000E+00   0.000000000000000E+00
   0.000000000000000E+00   0.000000000000000E+00   0.000000000000000E+00
   0.000000000000000E+00   0.000000000000000E+00   0.000000000000000E+00
   0.000000000000000E+00   0.000000000000000E+00   0.000000000000000E+00
   0.000000000000000E+00   0.000000000000000E+00   0.000000000000000E+00
   0.000000000000000E+00   0.000000000000000E+00   0.000000000000000E+00
    </PP_BETA.1>
    <PP_BETA.2 index="2" label="2S" angular_momentum="0" cutoff_radius_index="759" cutoff_radius="1.0000000000000000" ultrasoft_cutoff_radius="1.3000000000000000">
  -2.932811444705419E-03  -2.969701656129989E-03  -3.007055888710267E-03
  -3.044879979091628E-03  -3.085134129020006E-03  -3.119499752538002E-03
  -3.156818437586376E-03  -3.198360241178505E-03  -3.234088504722746E-03
  -3.281509382741118E-03  -3.314023718318751E-03  -3.370837231510548E-03
  -3.404578781160364E-03  -3.449494263689845E-03  -3.492918163372397E-03
  -3.540822645569097E-03  -3.585455523740011E-03  -3.623508570559597E-03
  -3.673203067470321E-03  -3.722404745056085E-03  -3.769348278332030E-03
  -3.806170448615476E-03  -3.869137694725966E-03  -3.902945490101034E-03
  -3.961177701111263E-03  -4.010822654011842E-03  -4.058942730273324E-03
  -4.116552736426915E-03  -4.165994149938845E-03  -4.207557463932449E-03
  -4.267504611750877E-03  -4.314666959655516E-03  -4.375004651138908E-03
  -4.437817435044483E-03  -4.491436844012875E-03  -4.551638126769453E-03
  -4.588117150595733E-03  -4.661369052201159E-03  -4.719239283408561E-03
  -4.775802155012054E-03  -4.840033409567013E-03  -4.892958396264080E-03
  -4.952594557499607E-03  -5.019765738920268E-03  -5.084702464305479E-03
  -5.147008070786663E-03  -5.212712431213185E-03  -5.277977659235711E-03
  -5.341446284935991E-03  -5.413444706808879E-03  -5.474614501842195E-03
  -5.546392241614517E-03  -5.623813305254882E-03  -5.692885068767223E-03
  -5.758680704533226E-03  -5.833035138500225E-03  -5.904508931565577E-03
  -5.973781796857869E-03  -6.053058522145327E-03  -6.138213177058982E-03
  -6.209358709308277E-03  -6.285021817696079E-03  -6.363130764955482E-03
  -6.443898527455943E-03  -6.530124026556589E-03  -6.608298672404006E-03
  -6.689928739416318E-03  -6.775832835530016E-03  -6.857848938851469E-03
  -6.951257141989658E-03  -7.035704665994874E-03  -7.122677350132695E-03
  -7.216145803035728E-03  -7.301807981299369E-03  -7.398621301237418E-03
  -7.491820886150746E-03  -7.584968133139802E-03  -7.675405248266431E-03
  -7.778792133123769E-03  -7.877894379608841E-03  -7.970433639282681E-03
  -8.075971977778540E-03  -8.170828302499933E-03  -8.274079426332070E-03
  -8.382283667895729E-03  -8.487837579020940E-03  -8.595472270232329E-03
  -8.704428489442195E-03  -8.811298732855466E-03  -8.925903176160654E-03
  -9.035370376657970E-03  -9.146614156237354E-03  -9.264079419300686E-03
  -9.376748143835045E-03  -9.497522866908470E-03  -9.615227609321986E-03
  -9.737307036370435E-03  -9.861721134882317E-03  -9.983714122062226E-03
  -1.010935945931268E-02  -1.023432658993878E-02  -1.036510591890200E-02
  -1.049895833180786E-02  -1.062368537557457E-02  -1.076242842849895E-02
  -1.089731446990611E-02  -1.103274502556828E-02  -1.117481674606319E-02
  -1.131215340297548E-02  -1.145853983182321E-02  -1.159915294573377E-02
  -1.174745212098527E-02  -1.189191921416893E-02  -1.204346385967775E-02
  -1.219339679241133E-02  -1.234686644229588E-02  -1.249957818400588E-02
  -1.266354993691188E-02  -1.282044976055335E-02  -1.297877692350852E-02
  -1.314384662572926E-02  -1.330867737388303E-02  -1.347593790992374E-02
  -1.364520761744936E-02  -1.381636442533651E-02  -1.399494096592230E-02
  -1.416776173467044E-02  -1.434748270514918E-02  -1.452721676043928E-02
  -1.470795072536024E-02  -1.489244788708932E-02  -1.508049292604563E-02
  -1.527329708109471E-02  -1.546440998494658E-02  -1.565568157802033E-02
  -1.585544368573022E-02  -1.605634397016653E-02  -1.625648874565688E-02
  -1.645859455325405E-02  -1.666846576948899E-02  -1.687645743726807E-02
  -1.709210140063278E-02  -1.730326426248141E-02  -1.752271823451113E-02
  -1.774146452604231E-02  -1.796437595794675E-02  -1.819438479713242E-02
  -1.842090159252407E-02  -1.865201069779365E-02  -1.888570539330059E-02
  -1.912346715599644E-02  -1.936565710411364E-02  -1.960767832066368E-02
  -1.985662034313274E-02  -2.010386622221438E-02  -2.035673229460211E-02
  -2.061418282623140E-02  -2.087147021535551E-02  -2.113633516299340E-02
  -2.140163416105456E-02  -2.167024346882640E-02  -2.194233023174585E-02
  -2.221869292994205E-02  -2.249861208374515E-02  -2.278170443139671E-02
  -2.306981557904486E-02  -2.335794035257677E-02  -2.365224221923967E-02
  -2.394950520146677E-02  -2.425043735681798E-02  -2.455539928730666E-02
  -2.486671782628003E-02  -2.517717580312662E-02  -2.549472979930523E-02
  -2.581560803266647E-02  -2.613969079301381E-02  -2.646850765557307E-02
  -2.680128151053018E-02  -2.713918340984511E-02  -2.748173152847488E-02
  -2.782490279116012E-02  -2.817737445358737E-02  -2.852990286533663E-02
  -2.888814137637119E-02  -2.925262934874939E-02  -2.962015721244726E-02
  -2.999398944116116E-02  -3.036956425243842E-02  -3.075303987094302E-02
  -3.113808661034079E-02  -3.153067174919699E-02  -3.192751222506396E-02
  -3.232896416038011E-02  -3.273526309484409E-02  -3.314801144078761E-02
  -3.356352852695377E-02  -3.398582273625728E-02  -3.441312973998234E-02
  -3.484713713167187E-02  -3.528563640885829E-02  -3.572788511330005E-02
  -3.617773317630313E-02  -3.663375469169616E-02  -3.709339334864148E-02
  -3.756048996238959E-02  -3.803243063408246E-02  -3.851214770529121E-02
  -3.899557224244266E-02  -3.948654827209319E-02  -3.998364359731732E-02
  -4.048558765377641E-02  -4.099421815662474E-02  -4.151074525296217E-02
  -4.203304072086533E-02  -4.256132875710783E-02  -4.309747666945163E-02
  -4.363950263584337E-02  -4.418732385530122E-02  -4.474387334596219E-02
  -4.530681265181591E-02  -4.587646619814101E-02  -4.645285508252828E-02
  -4.703754118784276E-02  -4.762975513257461E-02  -4.822918082002658E-02
  -4.883415633388055E-02  -4.944920690510757E-02  -5.007073388269245E-02
  -5.070050265487613E-02  -5.133898355375965E-02  -5.198480155820451E-02
  -5.263835944341855E-02  -5.330015721264059E-02  -5.397139643775439E-02
  -5.464933677073236E-02  -5.533694257569199E-02  -5.603362975931425E-02
  -5.673756639870087E-02  -5.745199603805085E-02  -5.817368294752390E-02
  -5.890551793277998E-02  -5.964647301003323E-02  -6.039664324762484E-02
  -6.115687322611940E-02  -6.192564320492711E-02  -6.270479819214003E-02
  -6.349378631217650E-02  -6.429241438167654E-02  -6.510120267126895E-02
  -6.591940314732403E-02  -6.674899338770723E-02  -6.758799851838182E-02
  -6.843873863391581E-02  -6.929882944385080E-02  -7.017056989097004E-02
  -7.105291994302032E-02  -7.194662995911516E-02  -7.285158761110688E-02
  -7.376774376881201E-02  -7.469570284755145E-02  -7.563530840006694E-02
  -7.658632197394022E-02  -7.755011103342646E-02  -7.852558463728920E-02
  -7.951331001567308E-02  -8.051319644924737E-02  -8.152590490292244E-02
  -8.255099128665355E-02  -8.358962549046334E-02  -8.464088697285721E-02
  -8.570562735415921E-02  -8.678325374046114E-02  -8.787471421969650E-02
  -8.897989996741051E-02  -9.009883974685895E-02  -9.123213965437449E-02
  -9.237991020664582E-02  -9.354168351477510E-02  -9.471827324749205E-02
  -9.590939527690612E-02  -9.711564820962648E-02  -9.833698641757271E-02
  -9.957383405090070E-02  -1.008260349468180E-01  -1.020941751629172E-01
  -1.033780790284489E-01  -1.046780797063223E-01  -1.059947821289282E-01
  -1.073278102315136E-01  -1.086774957136658E-01  -1.100442747782484E-01
  -1.114285558733141E-01  -1.128299076865447E-01  -1.142487989310874E-01
  -1.156855607628628E-01  -1.171405094184497E-01  -1.186135701375379E-01
  -1.201055472103914E-01  -1.216159348105235E-01  -1.231452518368590E-01
  -1.246940489205164E-01  -1.262619786074017E-01  -1.278501193844610E-01
  -1.294576207371376E-01  -1.310858455479149E-01  -1.327342433082865E-01
  -1.344033231292254E-01  -1.360937168754228E-01  -1.378051147521449E-01
  -1.395379338809510E-01  -1.412929191479515E-01  -1.430695290887440E-01
  -1.448688987268918E-01  -1.466904989404343E-01  -1.485348699016837E-01
  -1.504028533506130E-01  -1.522940244177349E-01  -1.542091247251491E-01
  -1.561480795080055E-01  -1.581117922663990E-01  -1.600998704394891E-01
  -1.621129951877904E-01  -1.641514347844106E-01  -1.662154767355188E-01
  -1.683055337750812E-01  -1.704215989779909E-01  -1.725645673443719E-01
  -1.747342356744150E-01  -1.769313348456052E-01  -1.791561030368509E-01
  -1.814084656400379E-01  -1.836892555119896E-01  -1.859990599024810E-01
  -1.883371615482821E-01  -1.907053412127446E-01  -1.931026841437538E-01
  -1.955306413163740E-01  -1.979889489605489E-01  -2.004779962429319E-01
  -2.029983474633594E-01  -2.055502790503896E-01  -2.081345294167072E-01
  -2.107510726207975E-01  -2.134005439213862E-01  -2.160831321157843E-01
  -2.187994812581548E-01  -2.215499297802888E-01  -2.243348790229494E-01
  -2.271546740930290E-01  -2.300101170490780E-01  -2.329012375008714E-01
  -2.358287585839669E-01  -2.387929122077193E-01  -2.417944583678793E-01
  -2.448334314446843E-01  -2.479106120033787E-01  -2.510266977580429E-01
  -2.541812991867651E-01  -2.573760788360815E-01  -2.606104282903008E-01
  -2.638857878976282E-01  -2.672019053106638E-01  -2.705599890887278E-01
  -2.739597957085316E-01  -2.774023877750480E-01  -2.808882293230006E-01
  -2.844176335116959E-01  -2.879914155611178E-01  -2.916101903570780E-01
  -2.952738618613200E-01  -2.989837922648491E-01  -3.027402770530614E-01
  -3.065436567698789E-01  -3.103947681716530E-01  -3.142940521539863E-01
  -3.182424300468494E-01  -3.222401175456273E-01  -3.262879514254617E-01
  -3.303863188626632E-01  -3.345361801188833E-01  -3.387380209903661E-01
  -3.429924863107114E-01  -3.473000564102975E-01  -3.516617275764613E-01
  -3.560778888561575E-01  -3.605494448830395E-01  -3.650769186309901E-01
  -3.696608801440284E-01  -3.743025298133418E-01  -3.790018932706687E-01
  -3.837604661413856E-01  -3.885781415796092E-01  -3.934562577782703E-01
  -3.983952970294204E-01  -4.033961808980067E-01  -4.084595773898521E-01
  -4.135859929838261E-01  -4.187767236494455E-01  -4.240322167305752E-01
  -4.293533717817368E-01  -4.347409230800849E-01  -4.401959661381678E-01
  -4.457188543250084E-01  -4.513107195957033E-01  -4.569724264242847E-01
  -4.627046863752309E-01  -4.685086205481497E-01  -4.743847870212221E-01
  -4.803342617035611E-01  -4.863580175762969E-01  -4.924566360238813E-01
  -4.986313950218673E-01  -5.048830358546468E-01  -5.112124876374224E-01
  -5.176207237242529E-01  -5.241088682597237E-01  -5.306776770183923E-01
  -5.373282425723112E-01  -5.440614251438234E-01  -5.508784010525289E-01
  -5.577801726599141E-01  -5.647676114249904E-01  -5.718418577885132E-01
  -5.790040408661312E-01  -5.862551135392700E-01  -5.935961489944752E-01
  -6.010281505038613E-01  -6.085525015380568E-01  -6.161700139619946E-01
  -6.238820199221209E-01  -6.316895229529713E-01  -6.395936687610124E-01
  -6.475957457521631E-01  -6.556967495572721E-01  -6.638979774181166E-01
  -6.722006031632191E-01  -6.806058039554088E-01  -6.891148157383711E-01
  -6.977289561218711E-01  -7.064493157251626E-01  -7.152773198737137E-01
  -7.242139912715935E-01  -7.332608789799302E-01  -7.424191708710381E-01
  -7.516902512991024E-01  -7.610753293296995E-01  -7.705756979595186E-01
  -7.801928688237894E-01  -7.899282085473018E-01  -7.997829038309128E-01
  -8.097584608296913E-01  -8.198564240151782E-01  -8.300779039806550E-01
  -8.404245893380526E-01  -8.508978045983469E-01  -8.614990226249368E-01
  -8.722296730769799E-01  -8.830913345287534E-01  -8.940854488021728E-01
  -9.052135144734166E-01  -9.164769922660483E-01  -9.278776044056301E-01
  -9.394166921099583E-01  -9.510960085080455E-01  -9.629168699397255E-01
  -9.748811023145123E-01  -9.869901630028508E-01  -9.992457762164548E-01
  -1.011649423351734E+00  -1.024202864473430E+00  -1.036907698399077E+00
  -1.049765484973882E+00  -1.062778090129306E+00  -1.075947032016948E+00
  -1.089274112609544E+00  -1.102760949619302E+00  -1.116409319205125E+00
  -1.130220884194600E+00  -1.144197403700318E+00  -1.158340668382550E+00
  -1.172652414802350E+00  -1.187134308066881E+00  -1.201788243464577E+00
  -1.216615967265533E+00  -1.231619257498444E+00  -1.246799872169760E+00
  -1.262159709469245E+00  -1.277700521655937E+00  -1.293424114358778E+00
  -1.309332308049626E+00  -1.325426969648824E+00  -1.341709888176140E+00
  -1.358182897531627E+00  -1.374847918361120E+00  -1.391706701675453E+00
  -1.408761159710252E+00  -1.426013063641811E+00  -1.443464333348835E+00
  -1.461116779796235E+00  -1.478972224436220E+00  -1.497032581595811E+00
  -1.515299613844093E+00  -1.533775208243888E+00  -1.552461181878527E+00
  -1.571359310736277E+00  -1.590471542854104E+00  -1.609799549058771E+00
  -1.629345174091576E+00  -1.649110231099037E+00  -1.669096509187369E+00
  -1.689305738535325E+00  -1.709739635918190E+00  -1.730400016030686E+00
  -1.751288578861278E+00  -1.772406961458593E+00  -1.793756900051825E+00
  -1.815339962101206E+00  -1.837157870771485E+00  -1.859212167247335E+00
  -1.881504492167025E+00  -1.904036294908281E+00  -1.926809108606875E+00
  -1.949824484343083E+00  -1.973083725330739E+00  -1.996588362733135E+00
  -2.020339665852191E+00  -2.044338963756601E+00  -2.068587555346056E+00
  -2.093086606147764E+00  -2.117837318209851E+00  -2.142840789307428E+00
  -2.168097991373415E+00  -2.193610051922633E+00  -2.219377764618557E+00
  -2.245402066870668E+00  -2.271683704896873E+00  -2.298223381144041E+00
  -2.325021732413887E+00  -2.352079319633233E+00  -2.379396578510807E+00
  -2.406973881758177E+00  -2.434811509571077E+00  -2.462909653377992E+00
  -2.491268356275668E+00  -2.519887614989059E+00  -2.548767261011648E+00
  -2.577907036238358E+00  -2.607306530876471E+00  -2.636965271409935E+00
  -2.666882612326873E+00  -2.697057719088789E+00  -2.727489731739482E+00
  -2.758177504657226E+00  -2.789119895455144E+00  -2.820315449937027E+00
  -2.851762624720678E+00  -2.883459698795861E+00  -2.915404756250041E+00
  -2.947595714290031E+00  -2.980030304270443E+00  -3.012705997643138E+00
  -3.045620148893491E+00  -3.078769841270272E+00  -3.112151951654184E+00
  -3.145763128557817E+00  -3.179599813552869E+00  -3.213658158000172E+00
  -3.247934133939381E+00  -3.282423333492687E+00  -3.317121244760571E+00
  -3.352022961034663E+00  -3.387123346682003E+00  -3.422416972157279E+00
  -3.457898075235590E+00  -3.493560688956293E+00  -3.529398406979752E+00
  -3.565404579329225E+00  -3.601572202222755E+00  -3.637893970165493E+00
  -3.674362181267782E+00  -3.710968798770836E+00  -3.747705457689648E+00
  -3.784563388127339E+00  -3.821533442857174E+00  -3.858606114888630E+00
  -3.895771463476279E+00  -3.933019227628108E+00  -3.970338658131283E+00
  -4.007718607681369E+00  -4.045147591306829E+00  -4.082613589028711E+00
  -4.120104209645461E+00  -4.157606626350656E+00  -4.195107547633114E+00
  -4.232593258857804E+00  -4.270049585222864E+00  -4.307461930389053E+00
  -4.344815161381746E+00  -4.382093801780854E+00  -4.419281825761061E+00
  -4.456362821223507E+00  -4.493319830311748E+00  -4.530135537098573E+00
  -4.566792116881601E+00  -4.603271300860285E+00  -4.639554384069015E+00
  -4.675622221650002E+00  -4.711455220615591E+00  -4.747033396341067E+00
  -4.782336325610629E+00  -4.817343186060953E+00  -4.852032752911299E+00
  -4.886383454331337E+00  -4.920373325434127E+00  -4.953980098009680E+00
  -4.987181122145472E+00  -5.019953498715324E+00  -5.052274023153728E+00
  -5.084119217487483E+00  -5.115465409661624E+00  -5.146288702461504E+00
  -5.176565035630063E+00  -5.206270200461773E+00  -5.235379887596025E+00
  -5.263869715230527E+00  -5.291715276888368E+00  -5.318892165330055E+00
  -5.345376026756554E+00  -5.371142587927494E+00  -5.396167741654125E+00
  -5.420427510648409E+00  -5.443898192501848E+00  -5.466556335527628E+00
  -5.488378820873976E+00  -5.509342902630550E+00  -5.529426235761775E+00
  -5.548606985936772E+00  -5.566863813929842E+00  -5.584175920857433E+00
  -5.600523167734451E+00  -5.615886027111202E+00  -5.630245686288106E+00
  -5.643584049489505E+00  -5.655883780716522E+00  -5.667128324613600E+00
  -5.677301956154224E+00  -5.686389741115562E+00  -5.694377578395745E+00
  -5.701252178557752E+00  -5.707001058659017E+00  -5.711612510444979E+00
  -5.715075528597453E+00  -5.717379819830882E+00  -5.718515644466947E+00
  -5.718473791409110E+00  -5.717245407890260E+00  -5.714821923389337E+00
  -5.711194804385485E+00  -5.706355450303448E+00  -5.700294907020833E+00
  -5.693003649904711E+00  -5.684471284601074E+00  -5.674686223410419E+00
  -5.663635329031337E+00  -5.651303511876961E+00  -5.637673274445746E+00
  -5.622724205926545E+00  -5.606432473720844E+00  -5.588770189549962E+00
  -5.569704780696043E+00  -5.549198282495695E+00  -5.527206589113035E+00
  -5.503678599925848E+00  -5.478555390894343E+00  -5.451769229653564E+00
  -5.423242606253126E+00  -5.392887190639271E+00  -5.360602686212729E+00
  -5.326275688234688E+00  -5.289778464233308E+00  -5.250967673961838E+00
  -5.209683104748507E+00  -5.165746290302451E+00  -5.118959183440012E+00
  -5.069102765557176E+00  -5.015935684022338E+00  -4.959192889511769E+00
  -4.898584301897756E+00  -4.833793555826219E+00  -4.764476772041377E+00
  -4.690261486620983E+00  -4.610745676032309E+00  -4.525496924237245E+00
  -4.434051866179729E+00  -4.335915786280694E+00  -4.230562554746868E+00
  -4.117434888662672E+00  -3.995944992788125E+00  -3.865475659136862E+00
  -3.725381910308528E+00  -3.574993150382667E+00  -3.413616078442033E+00
  -3.240538252708461E+00  -3.055032556531174E+00  -2.856362540323886E+00
  -2.643788799137099E+00  -2.416576482935596E+00  -2.174004029856235E+00
  -1.915373232917787E+00  -1.640020805702846E+00  -1.347331489745144E+00
  -1.036752900742556E+00  -7.078121964122630E-01  -3.601347086254805E-01
   6.535337126280183E-03   3.923118812793192E-01   7.971417633280851E-01
   1.220776995986498E+00   1.662744482353283E+00   2.122313046413339E+00
   2.598457765313320E+00   3.089821412178004E+00   3.594673092107108E+00
   4.110863914046639E+00   4.635779800620991E+00   5.166291397629205E+00
   5.698701172423739E+00   6.228687825827272E+00   6.751248137019303E+00
   7.260636500324082E+00   7.750302406259081E+00   8.212826224677780E+00
   8.639853740641394E+00   9.022029944211177E+00   9.348932744864047E+00
   9.608971328956764E+00   9.789397149436816E+00   9.876564544638548E+00
   9.858942729726724E+00   9.717180941413714E+00   9.436167758289598E+00
   8.998932102602705E+00   8.387756069667876E+00   7.584229142506612E+00
   6.569362593403177E+00   5.323277481604858E+00   3.829210431484455E+00
   2.035761594945087E+00   2.250297790986142E-01  -2.291850508161012E-02
   1.543472103043212E-03  -9.970039810948384E-04  -8.550313762455582E-04
  -9.738715097746919E-04  -1.060975917913073E-03  -1.147277399982820E-03
  -1.228388709921550E-03  -1.305212159605246E-03  -1.377767557070786E-03
  -1.446163698776414E-03  -1.510503358289582E-03  -1.570887194780774E-03
  -1.627419414534397E-03  -1.680201839990040E-03  -1.729335735756157E-03
  -1.774922900717712E-03  -1.817061721946251E-03  -1.855851525054128E-03
  -1.891387960150231E-03  -1.923765906765447E-03  -1.953077665754291E-03
  -1.979413258940452E-03  -2.002861953013173E-03  -2.023507211322783E-03
  -2.041433843521629E-03  -2.056721037742668E-03  -2.069446620307589E-03
  -2.079686539468590E-03   0.000000000000000E+00   0.000000000000000E+00
   0.000000000000000E+00   0.000000000000000E+00   0.000000000000000E+00
   0.000000000000000E+00   0.000000000000000E+00   0.000000000000000E+00
   0.000000000000000E+00   0.000000000000000E+00   0.000000000000000E+00
   0.000000000000000E+00   0.000000000000000E+00   0.000000000000000E+00
   0.000000000000000E+00   0.000000000000000E+00   0.000000000000000E+00
   0.000000000000000E+00   0.000000000000000E+00   0.000000000000000E+00
   0.000000000000000E+00   0.000000000000000E+00   0.000000000000000E+00
   0.000000000000000E+00   0.000000000000000E+00   0.000000000000000E+00
   0.000000000000000E+00   0.000000000000000E+00   0.000000000000000E+00
   0.000000000000000E+00   0.000000000000000E+00   0.000000000000000E+00
   0.000000000000000E+00   0.000000000000000E+00   0.000000000000000E+00
   0.000000000000000E+00   0.000000000000000E+00   0.000000000000000E+00
   0.000000000000000E+00   0.000000000000000E+00   0.000000000000000E+00
   0.000000000000000E+00   0.000000000000000E+00   0.000000000000000E+00
   0.000000000000000E+00   0.000000000000000E+00   0.000000000000000E+00
   0.000000000000000E+00   0.000000000000000E+00   0.000000000000000E+00
   0.000000000000000E+00   0.000000000000000E+00   0.000000000000000E+00
   0.000000000000000E+00   0.000000000000000E+00   0.000000000000000E+00
   0.000000000000000E+00   0.000000000000000E+00   0.000000000000000E+00
   0.000000000000000E+00   0.000000000000000E+00   0.000000000000000E+00
   0.000000000000000E+00   0.000000000000000E+00   0.000000000000000E+00
   0.000000000000000E+00   0.000000000000000E+00   0.000000000000000E+00
   0.000000000000000E+00   0.000000000000000E+00   0.000000000000000E+00
   0.000000000000000E+00   0.000000000000000E+00   0.000000000000000E+00
   0.000000000000000E+00   0.000000000000000E+00   0.000000000000000E+00
   0.000000000000000E+00   0.000000000000000E+00   0.000000000000000E+00
   0.000000000000000E+00   0.000000000000000E+00   0.000000000000000E+00
   0.000000000000000E+00   0.000000000000000E+00   0.000000000000000E+00
   0.000000000000000E+00   0.000000000000000E+00   0.000000000000000E+00
   0.000000000000000E+00   0.000000000000000E+00   0.000000000000000E+00
   0.000000000000000E+00   0.000000000000000E+00   0.000000000000000E+00
   0.000000000000000E+00   0.000000000000000E+00   0.000000000000000E+00
   0.000000000000000E+00   0.000000000000000E+00   0.000000000000000E+00
   0.000000000000000E+00   0.000000000000000E+00   0.000000000000000E+00
   0.000000000000000E+00   0.000000000000000E+00   0.000000000000000E+00
   0.000000000000000E+00   0.000000000000000E+00   0.000000000000000E+00
   0.000000000000000E+00   0.000000000000000E+00   0.000000000000000E+00
   0.000000000000000E+00   0.000000000000000E+00   0.000000000000000E+00
   0.000000000000000E+00   0.000000000000000E+00   0.000000000000000E+00
   0.000000000000000E+00   0.000000000000000E+00   0.000000000000000E+00
   0.000000000000000E+00   0.000000000000000E+00   0.000000000000000E+00
   0.000000000000000E+00   0.000000000000000E+00   0.000000000000000E+00
   0.000000000000000E+00   0.000000000000000E+00   0.000000000000000E+00
   0.000000000000000E+00   0.000000000000000E+00   0.000000000000000E+00
   0.000000000000000E+00   0.000000000000000E+00   0.000000000000000E+00
   0.000000000000000E+00   0.000000000000000E+00   0.000000000000000E+00
   0.000000000000000E+00   0.000000000000000E+00   0.000000000000000E+00
   0.000000000000000E+00   0.000000000000000E+00   0.000000000000000E+00
   0.000000000000000E+00   0.000000000000000E+00   0.000000000000000E+00
   0.000000000000000E+00   0.000000000000000E+00   0.000000000000000E+00
   0.000000000000000E+00   0.000000000000000E+00   0.000000000000000E+00
   0.000000000000000E+00   0.000000000000000E+00   0.000000000000000E+00
   0.000000000000000E+00   0.000000000000000E+00   0.000000000000000E+00
   0.000000000000000E+00   0.000000000000000E+00   0.000000000000000E+00
   0.000000000000000E+00   0.000000000000000E+00   0.000000000000000E+00
   0.000000000000000E+00   0.000000000000000E+00   0.000000000000000E+00
   0.000000000000000E+00   0.000000000000000E+00   0.000000000000000E+00
   0.000000000000000E+00   0.000000000000000E+00   0.000000000000000E+00
   0.000000000000000E+00   0.000000000000000E+00   0.000000000000000E+00
   0.000000000000000E+00   0.000000000000000E+00   0.000000000000000E+00
   0.000000000000000E+00   0.000000000000000E+00   0.000000000000000E+00
   0.000000000000000E+00   0.000000000000000E+00   0.000000000000000E+00
   0.000000000000000E+00   0.000000000000000E+00   0.000000000000000E+00
   0.000000000000000E+00   0.000000000000000E+00   0.000000000000000E+00
   0.000000000000000E+00   0.000000000000000E+00   0.000000000000000E+00
   0.000000000000000E+00   0.000000000000000E+00   0.000000000000000E+00
   0.000000000000000E+00   0.000000000000000E+00   0.000000000000000E+00
   0.000000000000000E+00   0.000000000000000E+00   0.000000000000000E+00
   0.000000000000000E+00   0.000000000000000E+00   0.000000000000000E+00
   0.000000000000000E+00   0.000000000000000E+00   0.000000000000000E+00
   0.000000000000000E+00   0.000000000000000E+00   0.000000000000000E+00
   0.000000000000000E+00   0.000000000000000E+00   0.000000000000000E+00
   0.000000000000000E+00   0.000000000000000E+00   0.000000000000000E+00
   0.000000000000000E+00   0.000000000000000E+00   0.000000000000000E+00
   0.000000000000000E+00   0.000000000000000E+00   0.000000000000000E+00
   0.000000000000000E+00   0.000000000000000E+00   0.000000000000000E+00
   0.000000000000000E+00   0.000000000000000E+00   0.000000000000000E+00
   0.000000000000000E+00   0.000000000000000E+00   0.000000000000000E+00
   0.000000000000000E+00   0.000000000000000E+00   0.000000000000000E+00
   0.000000000000000E+00   0.000000000000000E+00   0.000000000000000E+00
   0.000000000000000E+00   0.000000000000000E+00   0.000000000000000E+00
   0.000000000000000E+00   0.000000000000000E+00   0.000000000000000E+00
   0.000000000000000E+00   0.000000000000000E+00   0.000000000000000E+00
   0.000000000000000E+00   0.000000000000000E+00   0.000000000000000E+00
   0.000000000000000E+00   0.000000000000000E+00   0.000000000000000E+00
   0.000000000000000E+00   0.000000000000000E+00   0.000000000000000E+00
   0.000000000000000E+00   0.000000000000000E+00   0.000000000000000E+00
   0.000000000000000E+00   0.000000000000000E+00   0.000000000000000E+00
   0.000000000000000E+00   0.000000000000000E+00   0.000000000000000E+00
   0.000000000000000E+00   0.000000000000000E+00   0.000000000000000E+00
   0.000000000000000E+00   0.000000000000000E+00   0.000000000000000E+00
   0.000000000000000E+00   0.000000000000000E+00   0.000000000000000E+00
   0.000000000000000E+00   0.000000000000000E+00   0.000000000000000E+00
   0.000000000000000E+00   0.000000000000000E+00   0.000000000000000E+00
   0.000000000000000E+00   0.000000000000000E+00   0.000000000000000E+00
   0.000000000000000E+00   0.000000000000000E+00   0.000000000000000E+00
   0.000000000000000E+00   0.000000000000000E+00   0.000000000000000E+00
   0.000000000000000E+00   0.000000000000000E+00   0.000000000000000E+00
   0.000000000000000E+00   0.000000000000000E+00   0.000000000000000E+00
   0.000000000000000E+00   0.000000000000000E+00   0.000000000000000E+00
   0.000000000000000E+00   0.000000000000000E+00   0.000000000000000E+00
   0.000000000000000E+00   0.000000000000000E+00   0.000000000000000E+00
   0.000000000000000E+00   0.000000000000000E+00   0.000000000000000E+00
   0.000000000000000E+00   0.000000000000000E+00   0.000000000000000E+00
   0.000000000000000E+00   0.000000000000000E+00   0.000000000000000E+00
    </PP_BETA.2>
    <PP_BETA.3 index="3" label="2P" angular_momentum="1" cutoff_radius_index="761" cutoff_radius="0.90000000000000002" ultrasoft_cutoff_radius="1.3500000000000001">
  -3.265698781525289E-05  -3.348370340040683E-05  -3.433134739037322E-05
  -3.520044959024905E-05  -3.609155321721184E-05  -3.700521524004758E-05
  -3.794200672727454E-05  -3.890251320407993E-05  -3.988733501829187E-05
  -4.089708771561678E-05  -4.193240242437524E-05  -4.299392624997772E-05
  -4.408232267938677E-05  -4.519827199581789E-05  -4.634247170393874E-05
  -4.751563696583241E-05  -4.871850104799672E-05  -4.995181577966025E-05
  -5.121635202269949E-05  -5.251290015345332E-05  -5.384227055673345E-05
  -5.520529413234162E-05  -5.660282281440908E-05  -5.803573010388323E-05
  -5.950491161449433E-05  -6.101128563254285E-05  -6.255579369085883E-05
  -6.413940115729058E-05  -6.576309783809072E-05  -6.742789859657817E-05
  -6.913484398745999E-05  -7.088500090721243E-05  -7.267946326092628E-05
  -7.451935264603260E-05  -7.640581905333865E-05  -7.834004158580922E-05
  -8.032322919554393E-05  -8.235662143941307E-05  -8.444148925381963E-05
  -8.657913574907771E-05  -8.877089702389760E-05  -9.101814300049177E-05
  -9.332227828082130E-05  -9.568474302451693E-05  -9.810701384902761E-05
  -1.005906047525529E-04  -1.031370680603426E-04  -1.057479953949497E-04
  -1.084250186710478E-04  -1.111698111154302E-04  -1.139840883128316E-04
  -1.168696092782248E-04  -1.198281775562624E-04  -1.228616423485509E-04
  -1.259718996694636E-04  -1.291608935312101E-04  -1.324306171589077E-04
  -1.357831142364133E-04  -1.392204801836919E-04  -1.427448634665234E-04
  -1.463584669393630E-04  -1.500635492221982E-04  -1.538624261122601E-04
  -1.577574720314725E-04  -1.617511215105436E-04  -1.658458707106269E-04
  -1.700442789835043E-04  -1.743489704712647E-04  -1.787626357464786E-04
  -1.832880334938954E-04  -1.879279922347095E-04  -1.926854120944811E-04
  -1.975632666158086E-04  -2.025646046168909E-04  -2.076925520971388E-04
  -2.129503141910268E-04  -2.183411771714077E-04  -2.238685105035412E-04
  -2.295357689511201E-04  -2.353464947356120E-04  -2.413043197502629E-04
  -2.474129678301506E-04  -2.536762570797043E-04  -2.600981022591438E-04
  -2.666825172313374E-04  -2.734336174705933E-04  -2.803556226349693E-04
  -2.874528592036998E-04  -2.947297631813825E-04  -3.021908828706331E-04
  -3.098408817149216E-04  -3.176845412133772E-04  -3.257267639093858E-04
  -3.339725764548390E-04  -3.424271327519596E-04  -3.510957171746574E-04
  -3.599837478714413E-04  -3.690967801519382E-04  -3.784405099591455E-04
  -3.880207774295864E-04  -3.978435705435863E-04  -4.079150288679564E-04
  -4.182414473934313E-04  -4.288292804692413E-04  -4.396851458373016E-04
  -4.508158287685124E-04  -4.622282863037826E-04  -4.739296516024106E-04
  -4.859272384005447E-04  -4.982285455825144E-04  -5.108412618678774E-04
  -5.237732706171280E-04  -5.370326547590580E-04  -5.506277018428579E-04
  -5.645669092181121E-04  -5.788589893459197E-04  -5.935128752444798E-04
  -6.085377260725213E-04  -6.239429328540862E-04  -6.397381243482335E-04
  -6.559331730673279E-04  -6.725382014477008E-04  -6.895635881765056E-04
  -7.070199746787415E-04  -7.249182717685137E-04  -7.432696664686424E-04
  -7.620856290029366E-04  -7.813779199654673E-04  -8.011585976713319E-04
  -8.214400256935125E-04  -8.422348805905196E-04  -8.635561598296692E-04
  -8.854171899109389E-04  -9.078316346964785E-04  -9.308135039509946E-04
  -9.543771620983128E-04  -9.785373371996361E-04  -1.003309130159085E-03
  -1.028708024162267E-03  -1.054749894353801E-03  -1.081451017759821E-03
  -1.108828083461659E-03  -1.136898203027111E-03  -1.165678921205725E-03
  -1.195188226894894E-03  -1.225444564383511E-03  -1.256466844880289E-03
  -1.288274458333918E-03  -1.320887285552432E-03  -1.354325710629424E-03
  -1.388610633684777E-03  -1.423763483927975E-03  -1.459806233052093E-03
  -1.496761408966865E-03  -1.534652109879408E-03  -1.573502018731393E-03
  -1.613335418001720E-03  -1.654177204883892E-03  -1.696052906847638E-03
  -1.738988697594482E-03  -1.783011413417190E-03  -1.828148569973418E-03
  -1.874428379483961E-03  -1.913172637039962E-03  -1.961484764053105E-03
  -2.011545530864885E-03  -2.062755478858013E-03  -2.114944081205714E-03
  -2.169163849792988E-03  -2.223877048985270E-03  -2.280767800545544E-03
  -2.346838418645372E-03  -2.406429998586663E-03  -2.467236924622487E-03
  -2.529721820957830E-03  -2.593789633230190E-03  -2.659397850736983E-03
  -2.726880536080355E-03  -2.795772207935577E-03  -2.866666676848127E-03
  -2.939144864012715E-03  -3.013538863962450E-03  -3.089876654861648E-03
  -3.168073973676619E-03  -3.248475742726157E-03  -3.330606367451248E-03
  -3.414941481811484E-03  -3.501345817556166E-03  -3.590027247277113E-03
  -3.680954144581729E-03  -3.774166915091319E-03  -3.869702410993010E-03
  -3.967590937523366E-03  -4.068254007764614E-03  -4.171037794820582E-03
  -4.276876977213531E-03  -4.384886297403200E-03  -4.495972613792726E-03
  -4.609913629287928E-03  -4.726529632737172E-03  -4.846217093250206E-03
  -4.968913701285587E-03  -5.094618891306035E-03  -5.223717783667692E-03
  -5.355938062196502E-03  -5.491586053945504E-03  -5.630619990219316E-03
  -5.773099305888225E-03  -5.919328287302163E-03  -6.069130447120721E-03
  -6.222837273676302E-03  -6.380331730009004E-03  -6.541963796379495E-03
  -6.707446375018061E-03  -6.877224393342884E-03  -7.051334478510335E-03
  -7.229944242719957E-03  -7.412920666218997E-03  -7.600661500207346E-03
  -7.792970298865207E-03  -7.990340249162762E-03  -8.192689306977176E-03
  -8.400036560460230E-03  -8.612718110333439E-03  -8.830648716400706E-03
  -9.054400727240168E-03  -9.283464639890687E-03  -9.518626688798056E-03
  -9.759394141168720E-03  -1.000655716653986E-02  -1.025990243390901E-02
  -1.051969143739445E-02  -1.078584981629188E-02  -1.105902187961236E-02
  -1.133901799800203E-02  -1.162601642819693E-02  -1.192037952461070E-02
  -1.222216221441873E-02  -1.253154749047217E-02  -1.284870071497526E-02
  -1.317408605132253E-02  -1.350765793834589E-02  -1.384947561544465E-02
  -1.420010481222105E-02  -1.455961140260658E-02  -1.492817341529195E-02
  -1.530605009378397E-02  -1.569361207731915E-02  -1.609080132589076E-02
  -1.649817890773869E-02  -1.691597188709340E-02  -1.734417245810715E-02
  -1.778319031303664E-02  -1.823339161563908E-02  -1.869495663045738E-02
  -1.916808652405826E-02  -1.965338230775668E-02  -2.015095966469770E-02
  -2.066098937802678E-02  -2.118414996948748E-02  -2.172035992396687E-02
  -2.227029728068614E-02  -2.283390285112250E-02  -2.341215854895999E-02
  -2.400468591366796E-02  -2.461242467749265E-02  -2.523542659857769E-02
  -2.587414524296497E-02  -2.652927150295205E-02  -2.720080526388741E-02
  -2.788936600421636E-02  -2.859548880325488E-02  -2.931922666043890E-02
  -3.006157778723151E-02  -3.082243950527941E-02  -3.160266843378236E-02
  -3.240283236561059E-02  -3.322302384798133E-02  -3.406403239245180E-02
  -3.492632322306011E-02  -3.581045520220116E-02  -3.671702000967261E-02
  -3.764638075648324E-02  -3.859937932773563E-02  -3.957645100031434E-02
  -4.057853686536739E-02  -4.160558612181589E-02  -4.265871341267211E-02
  -4.373873773122688E-02  -4.484582093039505E-02  -4.598110525105065E-02
  -4.714495368601079E-02  -4.833854939769897E-02  -4.956199555123067E-02
  -5.081656363827328E-02  -5.210294443887464E-02  -5.342184092567798E-02
  -5.477422402099158E-02  -5.616062197294719E-02  -5.758234107714319E-02
  -5.903992147859352E-02  -6.053439372755265E-02  -6.206658539045087E-02
  -6.363781010946798E-02  -6.524865360803656E-02  -6.690018831703881E-02
  -6.859383518687140E-02  -7.032988737928159E-02  -7.211030980941380E-02
  -7.393555292390364E-02  -7.580699579475325E-02  -7.772595363229545E-02
  -7.969346790226356E-02  -8.171054852558257E-02  -8.377881542300847E-02
  -8.589948086416321E-02  -8.807378287651602E-02  -9.030322653806139E-02
  -9.258883691411163E-02  -9.493251483662729E-02  -9.733558423189725E-02
  -9.979903724269767E-02  -1.023253161692171E-01  -1.049151962012359E-01
  -1.075708510057939E-01  -1.102935628891165E-01  -1.130851173831038E-01
  -1.159476761449295E-01  -1.188823453947360E-01  -1.218912916897991E-01
  -1.249765136212616E-01  -1.281396347487420E-01  -1.313830955684063E-01
  -1.347082882228227E-01  -1.381179819531633E-01  -1.416136891920197E-01
  -1.451979787273381E-01  -1.488729963004264E-01  -1.526409008021322E-01
  -1.565041814071856E-01  -1.604651893285373E-01  -1.645264271208884E-01
  -1.686904993940392E-01  -1.729599482155247E-01  -1.773373964256804E-01
  -1.818254962336597E-01  -1.864274075425967E-01  -1.911454552106382E-01
  -1.959830968226040E-01  -2.009429301874956E-01  -2.060284465506350E-01
  -2.112425475172723E-01  -2.165886387284767E-01  -2.220699493157791E-01
  -2.276898449393764E-01  -2.334519742838523E-01  -2.393600203719407E-01
  -2.454172829605169E-01  -2.516278154270279E-01  -2.579955888799150E-01
  -2.645245196408790E-01  -2.712167871655621E-01  -2.780852285570617E-01
  -2.851172550444614E-01  -2.923283220416206E-01  -2.997388113927457E-01
  -3.073067474338467E-01  -3.151004910316799E-01  -3.230596719426959E-01
  -3.312390525036646E-01  -3.396238828806286E-01  -3.482117520459465E-01
  -3.570219567284048E-01  -3.660597792856497E-01  -3.753205446694003E-01
  -3.848180418466449E-01  -3.945538650952858E-01  -4.045291359666852E-01
  -4.147752177145059E-01  -4.252662127005746E-01  -4.360184174165471E-01
  -4.470544570032666E-01  -4.583661595154633E-01  -4.699617213396978E-01
  -4.818459323880107E-01  -4.940382593314172E-01  -5.065410183976395E-01
  -5.193477934866340E-01  -5.324887857298100E-01  -5.459594800352037E-01
  -5.597685430918191E-01  -5.739226257752148E-01  -5.884489598754907E-01
  -6.033300001883974E-01  -6.185865711647729E-01  -6.342342612897611E-01
  -6.502789352854528E-01  -6.667188766151497E-01  -6.835900140922448E-01
  -7.008665777486018E-01  -7.186004351397997E-01  -7.367717120711039E-01
  -7.553984659226374E-01  -7.745080605449468E-01  -7.940887039201026E-01
  -8.141682820887528E-01  -8.347554121447320E-01  -8.558652904928308E-01
  -8.775017884189942E-01  -8.996893110825206E-01  -9.224289440134243E-01
  -9.457699574979785E-01  -9.696541504864586E-01  -9.941860945364231E-01
  -1.019301512371609E+00  -1.045085837401457E+00  -1.071487707012302E+00
  -1.098582754548979E+00  -1.126342795812714E+00  -1.154812176784874E+00
  -1.183999137401856E+00  -1.213912124003136E+00  -1.244603467941444E+00
  -1.276052938073422E+00  -1.308284487691493E+00  -1.341353058246522E+00
  -1.375241773340402E+00  -1.409987603249531E+00  -1.445617538352991E+00
  -1.482116022845597E+00  -1.519583573852436E+00  -1.557937062424328E+00
  -1.597322077906917E+00  -1.637643363906292E+00  -1.679013582832948E+00
  -1.721405895728582E+00  -1.764890426454421E+00  -1.809448334807840E+00
  -1.855130326713164E+00  -1.901977570180470E+00  -1.949993985989123E+00
  -1.999212066617940E+00  -2.049681670663385E+00  -2.101424389806606E+00
  -2.154456658265046E+00  -2.208822855580068E+00  -2.264576602679908E+00
  -2.321702912709789E+00  -2.380287048118685E+00  -2.440346266744628E+00
  -2.501898853946107E+00  -2.565008818627097E+00  -2.629701661557529E+00
  -2.696030051707295E+00  -2.764006577595962E+00  -2.833706972931022E+00
  -2.905147330258256E+00  -2.978389035256955E+00  -3.053453532358823E+00
  -3.130429163680645E+00  -3.209310225106575E+00  -3.290177312070153E+00
  -3.373080342436840E+00  -3.458059090670130E+00  -3.545157314845580E+00
  -3.634450475447215E+00  -3.725974768157908E+00  -3.819795979145864E+00
  -3.915958605157458E+00  -4.014537065251950E+00  -4.115573505631406E+00
  -4.219146530662272E+00  -4.325307047371503E+00  -4.434116757645192E+00
  -4.545653694797259E+00  -4.659970461031797E+00  -4.777146623465029E+00
  -4.897250244312470E+00  -5.020348173976355E+00  -5.146518247216626E+00
  -5.275836694483491E+00  -5.408375841332255E+00  -5.544225909437181E+00
  -5.683449163410035E+00  -5.826147800573473E+00  -5.972396905067328E+00
  -6.122283157668388E+00  -6.275897188534856E+00  -6.433333200858694E+00
  -6.594673994452549E+00  -6.760028040530141E+00  -6.929485203870556E+00
  -7.103142644000258E+00  -7.281111653681311E+00  -7.463486855651233E+00
  -7.650383767179981E+00  -7.841905760206746E+00  -8.038162484438416E+00
  -8.239276511288150E+00  -8.445359133693028E+00  -8.656531102922788E+00
  -8.872916375505532E+00  -9.094632632884082E+00  -9.321821142002719E+00
  -9.554601739207243E+00  -9.793111966615648E+00  -1.003748559175751E+01
  -1.028786855535446E+01  -1.054439937481765E+01  -1.080722376627148E+01
  -1.107648951482314E+01  -1.135235690347336E+01  -1.163497034913414E+01
  -1.192449752939781E+01  -1.222109834943632E+01  -1.252493732088232E+01
  -1.283618613928348E+01  -1.315501610024511E+01  -1.348160560069966E+01
  -1.381613607988574E+01  -1.415878741626714E+01  -1.450975199272848E+01
  -1.486922273206466E+01  -1.523738900981079E+01  -1.561445803657038E+01
  -1.600062794979400E+01  -1.639611320174900E+01  -1.680111830306262E+01
  -1.721586519699410E+01  -1.764057231675808E+01  -1.807546498837822E+01
  -1.852077094862771E+01  -1.897672565193736E+01  -1.944356480931118E+01
  -1.992153349667429E+01  -2.041087463893278E+01  -2.091184366967491E+01
  -2.142469111079718E+01  -2.194968305289213E+01  -2.248707971772176E+01
  -2.303715163869494E+01  -2.360017382071617E+01  -2.417642364390211E+01
  -2.476618336240773E+01  -2.536974315862680E+01  -2.598739219914505E+01
  -2.661942864658592E+01  -2.726615381419811E+01  -2.792787197244942E+01
  -2.860489419078634E+01  -2.929753511014994E+01  -3.000611272211268E+01
  -3.073094943671336E+01  -3.147237414617049E+01  -3.223071576984900E+01
  -3.300631039235705E+01  -3.379949797460679E+01  -3.461061874599774E+01
  -3.544002194252592E+01  -3.628805311660948E+01  -3.715506952758906E+01
  -3.804142423789926E+01  -3.894747554642322E+01  -3.987358744935942E+01
  -4.082012122208384E+01  -4.178744247124583E+01  -4.277592005323785E+01
  -4.378592268535382E+01  -4.481781925161850E+01  -4.587198201542316E+01
  -4.694878123989446E+01  -4.804858887230719E+01  -4.917177462723456E+01
  -5.031870938970584E+01  -5.148975969337368E+01  -5.268529383329547E+01
  -5.390567324641921E+01  -5.515125956740098E+01  -5.642240800512991E+01
  -5.771947075551441E+01  -5.904279368045511E+01  -6.039271713515438E+01
  -6.176957334389868E+01  -6.317368753569966E+01  -6.460537560461785E+01
  -6.606494351665711E+01  -6.755268556044339E+01  -6.906888550840426E+01
  -7.061381140587062E+01  -7.218771889578636E+01  -7.379084620086311E+01
  -7.542341410832185E+01  -7.708562581442035E+01  -7.877766210854750E+01
  -8.049968304164778E+01  -8.225182463918892E+01  -8.403419638863534E+01
  -8.584688096480565E+01  -8.768993067930109E+01  -8.956336716560821E+01
  -9.146717680955891E+01  -9.340130975003765E+01  -9.536567912370347E+01
  -9.736015343060026E+01  -9.938456084305946E+01  -1.014386795331399E+02
  -1.035222402174711E+02  -1.056349196137752E+02  -1.077763386503953E+02
  -1.099460591692400E+02  -1.121435802696304E+02  -1.143683342037662E+02
  -1.166196840005789E+02  -1.188969178386958E+02  -1.211992464892285E+02
  -1.235257978583322E+02  -1.258756140309802E+02  -1.282476456331008E+02
  -1.306407475309990E+02  -1.330536739234830E+02  -1.354850743061284E+02
  -1.379334865958974E+02  -1.403973334985232E+02  -1.428749161484822E+02
  -1.453644090353918E+02  -1.478638540096102E+02  -1.503711543950871E+02
  -1.528840696031048E+02  -1.554002083149141E+02  -1.579170226826475E+02
  -1.604318021848368E+02  -1.629416669721736E+02  -1.654435611584086E+02
  -1.679342473629115E+02  -1.704102991264296E+02  -1.728680951653106E+02
  -1.753038117029460E+02  -1.777134182002192E+02  -1.800926685609920E+02
  -1.824370963647582E+02  -1.847420085029447E+02  -1.870024787453875E+02
  -1.892133429480478E+02  -1.913691931951186E+02  -1.934643722882231E+02
  -1.954929708289407E+02  -1.974488207680620E+02  -1.993254940574023E+02
  -2.011162986754295E+02  -2.028142759385063E+02  -2.044122008948283E+02
  -2.059025798015442E+02  -2.072776522324311E+02  -2.085293922522300E+02
  -2.096495110004900E+02  -2.106294624335503E+02  -2.114604475382486E+02
  -2.121334227908779E+02  -2.126391102164242E+02  -2.129680078268401E+02
  -2.131104034987113E+02  -2.130563920871637E+02  -2.127958922785579E+02
  -2.123186695831894E+02  -2.116143597576429E+02  -2.106724970407738E+02
  -2.094825446026884E+02  -2.080339296228938E+02  -2.063160818333267E+02
  -2.043184759532483E+02  -2.020306795596007E+02  -1.994424036513337E+02
  -1.965435609201745E+02  -1.933243258158027E+02  -1.897752027041115E+02
  -1.858870984162982E+02  -1.816514000739699E+02  -1.770600606941216E+02
  -1.721056879290363E+02  -1.667816427652006E+02  -1.610821413084932E+02
  -1.550023646823693E+02  -1.485385756212040E+02  -1.416882400764948E+02
  -1.344501559172672E+02  -1.268245884470316E+02  -1.188134100560487E+02
  -1.104202467458877E+02  -1.016506287386519E+02  -9.251214619950952E+01
  -8.301460785356085E+01  -7.317020258301272E+01  -6.299366335855393E+01
  -5.250242969887950E+01  -4.171681211344912E+01  -3.066015073069411E+01
  -1.935897169551299E+01  -7.843135457182143E+00   3.854023155217874E+00
   1.569556754686619E+01   2.764084583535987E+01   3.964539660052651E+01
   5.166087526891533E+01   6.363500725256654E+01   7.551157188765137E+01
   8.723041876415209E+01   9.872752826740179E+01   1.099351135329280E+02
   1.207817776355760E+02   1.311927258863325E+02   1.410900444010458E+02
   1.503930490731573E+02   1.590187139230429E+02   1.668821853131503E+02
   1.738973904953500E+02   1.799777477926009E+02   1.850369882462383E+02
   1.889900929297237E+02   1.917543598721732E+02   1.932506021631734E+02
   1.934044894494145E+02   1.921480382562659E+02   1.894212570451155E+02
   1.851739530782188E+02   1.793677055445069E+02   1.719780081333697E+02
   1.629965839135612E+02   1.524338726815718E+02   1.403216905441500E+02
   1.267160563892453E+02   1.117001807951824E+02   9.538760775821447E+01
   7.792549634493434E+01   5.949802744411727E+01   4.032991463660869E+01
   2.069068952612861E+01   8.968957860124647E-01  -1.869051217496690E+01
  -3.772227910659956E+01  -5.566554979238151E+01  -7.203541122021511E+01
  -8.627432400560679E+01  -9.777149644264597E+01  -1.058619787422138E+02
  -1.098262683532658E+02  -1.088904135044053E+02  -1.022277052652972E+02
  -8.895237590009479E+01  -6.819948676011725E+01  -3.837713104540305E+01
  -4.470544645673789E+00   4.466821682178577E-01  -4.006983707201520E-02
   8.910778442271707E-03   4.738150320087287E-03   5.797567724772155E-03
   6.304265052197083E-03   6.806331452312873E-03   7.314721455966997E-03
   7.771012611312876E-03   8.200209312742845E-03   8.600819698923533E-03
   8.974043225704498E-03   9.320793053106083E-03   9.641928542252744E-03
   9.938426105882123E-03   1.021111886476660E-02   1.046088791116963E-02
   1.068857395757056E-02   1.089503939170728E-02   1.108107428665500E-02
   1.124747159758233E-02   1.139503886747558E-02   1.152448187037679E-02
   1.163658352194374E-02   1.173202813532509E-02   1.181151657314109E-02
   1.187574017003241E-02   1.192531856553775E-02   1.196091070577184E-02
   0.000000000000000E+00   0.000000000000000E+00   0.000000000000000E+00
   0.000000000000000E+00   0.000000000000000E+00   0.000000000000000E+00
   0.000000000000000E+00   0.000000000000000E+00   0.000000000000000E+00
   0.000000000000000E+00   0.000000000000000E+00   0.000000000000000E+00
   0.000000000000000E+00   0.000000000000000E+00   0.000000000000000E+00
   0.000000000000000E+00   0.000000000000000E+00   0.000000000000000E+00
   0.000000000000000E+00   0.000000000000000E+00   0.000000000000000E+00
   0.000000000000000E+00   0.000000000000000E+00   0.000000000000000E+00
   0.000000000000000E+00   0.000000000000000E+00   0.000000000000000E+00
   0.000000000000000E+00   0.000000000000000E+00   0.000000000000000E+00
   0.000000000000000E+00   0.000000000000000E+00   0.000000000000000E+00
   0.000000000000000E+00   0.000000000000000E+00   0.000000000000000E+00
   0.000000000000000E+00   0.000000000000000E+00   0.000000000000000E+00
   0.000000000000000E+00   0.000000000000000E+00   0.000000000000000E+00
   0.000000000000000E+00   0.000000000000000E+00   0.000000000000000E+00
   0.000000000000000E+00   0.000000000000000E+00   0.000000000000000E+00
   0.000000000000000E+00   0.000000000000000E+00   0.000000000000000E+00
   0.000000000000000E+00   0.000000000000000E+00   0.000000000000000E+00
   0.000000000000000E+00   0.000000000000000E+00   0.000000000000000E+00
   0.000000000000000E+00   0.000000000000000E+00   0.000000000000000E+00
   0.000000000000000E+00   0.000000000000000E+00   0.000000000000000E+00
   0.000000000000000E+00   0.000000000000000E+00   0.000000000000000E+00
   0.000000000000000E+00   0.000000000000000E+00   0.000000000000000E+00
   0.000000000000000E+00   0.000000000000000E+00   0.000000000000000E+00
   0.000000000000000E+00   0.000000000000000E+00   0.000000000000000E+00
   0.000000000000000E+00   0.000000000000000E+00   0.000000000000000E+00
   0.000000000000000E+00   0.000000000000000E+00   0.000000000000000E+00
   0.000000000000000E+00   0.000000000000000E+00   0.000000000000000E+00
   0.000000000000000E+00   0.000000000000000E+00   0.000000000000000E+00
   0.000000000000000E+00   0.000000000000000E+00   0.000000000000000E+00
   0.000000000000000E+00   0.000000000000000E+00   0.000000000000000E+00
   0.000000000000000E+00   0.000000000000000E+00   0.000000000000000E+00
   0.000000000000000E+00   0.000000000000000E+00   0.000000000000000E+00
   0.000000000000000E+00   0.000000000000000E+00   0.000000000000000E+00
   0.000000000000000E+00   0.000000000000000E+00   0.000000000000000E+00
   0.000000000000000E+00   0.000000000000000E+00   0.000000000000000E+00
   0.000000000000000E+00   0.000000000000000E+00   0.000000000000000E+00
   0.000000000000000E+00   0.000000000000000E+00   0.000000000000000E+00
   0.000000000000000E+00   0.000000000000000E+00   0.000000000000000E+00
   0.000000000000000E+00   0.000000000000000E+00   0.000000000000000E+00
   0.000000000000000E+00   0.000000000000000E+00   0.000000000000000E+00
   0.000000000000000E+00   0.000000000000000E+00   0.000000000000000E+00
   0.000000000000000E+00   0.000000000000000E+00   0.000000000000000E+00
   0.000000000000000E+00   0.000000000000000E+00   0.000000000000000E+00
   0.000000000000000E+00   0.000000000000000E+00   0.000000000000000E+00
   0.000000000000000E+00   0.000000000000000E+00   0.000000000000000E+00
   0.000000000000000E+00   0.000000000000000E+00   0.000000000000000E+00
   0.000000000000000E+00   0.000000000000000E+00   0.000000000000000E+00
   0.000000000000000E+00   0.000000000000000E+00   0.000000000000000E+00
   0.000000000000000E+00   0.000000000000000E+00   0.000000000000000E+00
   0.000000000000000E+00   0.000000000000000E+00   0.000000000000000E+00
   0.000000000000000E+00   0.000000000000000E+00   0.000000000000000E+00
   0.000000000000000E+00   0.000000000000000E+00   0.000000000000000E+00
   0.000000000000000E+00   0.000000000000000E+00   0.000000000000000E+00
   0.000000000000000E+00   0.000000000000000E+00   0.000000000000000E+00
   0.000000000000000E+00   0.000000000000000E+00   0.000000000000000E+00
   0.000000000000000E+00   0.000000000000000E+00   0.000000000000000E+00
   0.000000000000000E+00   0.000000000000000E+00   0.000000000000000E+00
   0.000000000000000E+00   0.000000000000000E+00   0.000000000000000E+00
   0.000000000000000E+00   0.000000000000000E+00   0.000000000000000E+00
   0.000000000000000E+00   0.000000000000000E+00   0.000000000000000E+00
   0.000000000000000E+00   0.000000000000000E+00   0.000000000000000E+00
   0.000000000000000E+00   0.000000000000000E+00   0.000000000000000E+00
   0.000000000000000E+00   0.000000000000000E+00   0.000000000000000E+00
   0.000000000000000E+00   0.000000000000000E+00   0.000000000000000E+00
   0.000000000000000E+00   0.000000000000000E+00   0.000000000000000E+00
   0.000000000000000E+00   0.000000000000000E+00   0.000000000000000E+00
   0.000000000000000E+00   0.000000000000000E+00   0.000000000000000E+00
   0.000000000000000E+00   0.000000000000000E+00   0.000000000000000E+00
   0.000000000000000E+00   0.000000000000000E+00   0.000000000000000E+00
   0.000000000000000E+00   0.000000000000000E+00   0.000000000000000E+00
   0.000000000000000E+00   0.000000000000000E+00   0.000000000000000E+00
   0.000000000000000E+00   0.000000000000000E+00   0.000000000000000E+00
   0.000000000000000E+00   0.000000000000000E+00   0.000000000000000E+00
   0.000000000000000E+00   0.000000000000000E+00   0.000000000000000E+00
   0.000000000000000E+00   0.000000000000000E+00   0.000000000000000E+00
   0.000000000000000E+00   0.000000000000000E+00   0.000000000000000E+00
   0.000000000000000E+00   0.000000000000000E+00   0.000000000000000E+00
   0.000000000000000E+00   0.000000000000000E+00   0.000000000000000E+00
   0.000000000000000E+00   0.000000000000000E+00   0.000000000000000E+00
   0.000000000000000E+00   0.000000000000000E+00   0.000000000000000E+00
   0.000000000000000E+00   0.000000000000000E+00   0.000000000000000E+00
   0.000000000000000E+00   0.000000000000000E+00   0.000000000000000E+00
   0.000000000000000E+00   0.000000000000000E+00   0.000000000000000E+00
   0.000000000000000E+00   0.000000000000000E+00   0.000000000000000E+00
   0.000000000000000E+00   0.000000000000000E+00   0.000000000000000E+00
   0.000000000000000E+00   0.000000000000000E+00   0.000000000000000E+00
   0.000000000000000E+00   0.000000000000000E+00   0.000000000000000E+00
   0.000000000000000E+00   0.000000000000000E+00   0.000000000000000E+00
   0.000000000000000E+00   0.000000000000000E+00   0.000000000000000E+00
   0.000000000000000E+00   0.000000000000000E+00   0.000000000000000E+00
   0.000000000000000E+00   0.000000000000000E+00   0.000000000000000E+00
   0.000000000000000E+00   0.000000000000000E+00   0.000000000000000E+00
   0.000000000000000E+00   0.000000000000000E+00   0.000000000000000E+00
   0.000000000000000E+00   0.000000000000000E+00   0.000000000000000E+00
   0.000000000000000E+00   0.000000000000000E+00   0.000000000000000E+00
   0.000000000000000E+00   0.000000000000000E+00   0.000000000000000E+00
   0.000000000000000E+00   0.000000000000000E+00   0.000000000000000E+00
   0.000000000000000E+00   0.000000000000000E+00   0.000000000000000E+00
   0.000000000000000E+00   0.000000000000000E+00   0.000000000000000E+00
   0.000000000000000E+00   0.000000000000000E+00   0.000000000000000E+00
   0.000000000000000E+00   0.000000000000000E+00   0.000000000000000E+00
   0.000000000000000E+00   0.000000000000000E+00   0.000000000000000E+00
   0.000000000000000E+00   0.000000000000000E+00   0.000000000000000E+00
   0.000000000000000E+00   0.000000000000000E+00   0.000000000000000E+00
    </PP_BETA.3>
    <PP_BETA.4 index="4" label="2P" angular_momentum="1" cutoff_radius_index="761" cutoff_radius="0.90000000000000002" ultrasoft_cutoff_radius="1.3500000000000001">
   5.155176356300064E-05   5.285680267608984E-05   5.419487901188371E-05
   5.556682891167013E-05   5.697350988881903E-05   5.841580116475471E-05
   5.989460421849873E-05   6.141084335012359E-05   6.296546625847023E-05
   6.455944463349108E-05   6.619377476358779E-05   6.786947815832372E-05
   6.958760218690117E-05   7.134922073280097E-05   7.315543486499518E-05
   7.500737352615053E-05   7.690619423825445E-05   7.885308382610511E-05
   8.084925915911390E-05   8.289596791189049E-05   8.499448934407841E-05
   8.714613509993538E-05   8.935225002815308E-05   9.161421302243162E-05
   9.393343788333385E-05   9.631137420195530E-05   9.874950826596770E-05
   1.012493639885961E-04   1.038125038611145E-04   1.064405299294553E-04
   1.091350847955385E-04   1.118978526439526E-04   1.147305602946247E-04
   1.176349782821394E-04   1.206129219623809E-04   1.236662526471904E-04
   1.267968787677445E-04   1.300067570673905E-04   1.332978938246714E-04
   1.366723461073192E-04   1.401322230579864E-04   1.436796872125304E-04
   1.473169558516703E-04   1.510463023868567E-04   1.548700577812328E-04
   1.587906120065579E-04   1.628104155370213E-04   1.669319808808671E-04
   1.711578841507952E-04   1.754907666741157E-04   1.799333366436644E-04
   1.844883708105126E-04   1.891587162195275E-04   1.939472919888673E-04
   1.988570911345287E-04   2.038911824410768E-04   2.090527123797365E-04
   2.143449070750422E-04   2.197710743212688E-04   2.253346056499148E-04
   2.310389784495164E-04   2.368877581391337E-04   2.428846003968511E-04
   2.490332534446988E-04   2.553375603914136E-04   2.618014616345061E-04
   2.684289973231424E-04   2.752243098833663E-04   2.821916466072543E-04
   2.893353623076112E-04   2.966599220398719E-04   3.041699038929073E-04
   3.118700018504815E-04   3.197650287251432E-04   3.278599191663973E-04
   3.361597327450167E-04   3.446696571154455E-04   3.533950112582509E-04
   3.623412488046635E-04   3.715139614452747E-04   3.809188824250285E-04
   3.905618901266885E-04   4.004490117450207E-04   4.105864270539884E-04
   4.209804722693172E-04   4.316376440088362E-04   4.425646033530796E-04
   4.537681800086838E-04   4.652553765771763E-04   4.770333729318366E-04
   4.891095307053529E-04   5.014913978910840E-04   5.141867135608092E-04
   5.272034127019015E-04   5.405496311769585E-04   5.542337108089849E-04
   5.682642045953105E-04   5.826498820534960E-04   5.973997347025689E-04
   6.125229816830321E-04   6.280290755191218E-04   6.439277080269525E-04
   6.602288163722256E-04   6.769425892812890E-04   6.940794734094304E-04
   7.116501798703823E-04   7.296656909311252E-04   7.481372668761738E-04
   7.670764530456260E-04   7.864950870513925E-04   8.064053061760915E-04
   8.268195549592620E-04   8.477505929756139E-04   8.692115028101901E-04
   8.912156982354273E-04   9.137769325951966E-04   9.369093074011220E-04
   9.606272811464880E-04   9.849456783432883E-04   1.009879698788045E-03
   1.035444927062188E-03   1.061657342272945E-03   1.088533328040827E-03
   1.116089682739930E-03   1.144343629997512E-03   1.173312829459310E-03
   1.203015387827437E-03   1.233469870177680E-03   1.264695311563295E-03
   1.296711228912570E-03   1.329537633227564E-03   1.363195042091658E-03
   1.397704492493747E-03   1.433087553977077E-03   1.469366342120951E-03
   1.506563532363704E-03   1.544702374175635E-03   1.583806705590730E-03
   1.623900968106237E-03   1.665010221959448E-03   1.707160161791214E-03
   1.750377132705955E-03   1.794688146738292E-03   1.840120899736466E-03
   1.886703788673234E-03   1.934465929394931E-03   1.983437174819891E-03
   2.033648133597569E-03   2.085130189239985E-03   2.137915519737549E-03
   2.192037117671382E-03   2.247528810834874E-03   2.304425283377197E-03
   2.362762097482153E-03   2.422575715595761E-03   2.483903523216577E-03
   2.546783852262952E-03   2.611256005031816E-03   2.677360278764026E-03
   2.745137990831568E-03   2.814631504562359E-03   2.885884255718861E-03
   2.958940779646976E-03   3.020077607365194E-03   3.096341367233701E-03
   3.175366937476996E-03   3.256206270014651E-03   3.338589611260444E-03
   3.424181273044740E-03   3.510549444365832E-03   3.600357236617540E-03
   3.704684157527227E-03   3.798755041030045E-03   3.894743217004532E-03
   3.993381141827698E-03   4.094517349396403E-03   4.198085215158215E-03
   4.304612785334698E-03   4.413363270047852E-03   4.525276712875979E-03
   4.639689026474682E-03   4.757126147030992E-03   4.877631865472045E-03
   5.001072477277411E-03   5.127994255292180E-03   5.257643678192803E-03
   5.390773729019763E-03   5.527170073282565E-03   5.667160910069562E-03
   5.810697008923549E-03   5.957840871547493E-03   6.108651644139679E-03
   6.263176662801993E-03   6.422082058197970E-03   6.584334417202471E-03
   6.751410864068004E-03   6.921911775105965E-03   7.097271056260616E-03
   7.277136545632050E-03   7.461224575911973E-03   7.650161069276195E-03
   7.843847887313259E-03   8.042283804938575E-03   8.246077271130327E-03
   8.454798100815900E-03   8.668929648576868E-03   8.888406352746694E-03
   9.113321653582002E-03   9.344156256542786E-03   9.580631493351345E-03
   9.823270482674611E-03   1.007188854456332E-02   1.032703851511376E-02
   1.058826588996296E-02   1.085627479317833E-02   1.113112182745804E-02
   1.141307252304902E-02   1.170191591150815E-02   1.199828046010724E-02
   1.230185578125258E-02   1.261342063467551E-02   1.293284577714410E-02
   1.326016053604837E-02   1.359589589792697E-02   1.393991741659236E-02
   1.429312896062949E-02   1.465472493507618E-02   1.502594833292489E-02
   1.540601894672816E-02   1.579618689690818E-02   1.619611328025053E-02
   1.660621209116572E-02   1.702636480904085E-02   1.745758980851304E-02
   1.789958734037619E-02   1.835263781665943E-02   1.881731471831223E-02
   1.929370388777454E-02   1.978209399940450E-02   2.028274673830305E-02
   2.079639473668898E-02   2.132296603414646E-02   2.186255325028118E-02
   2.241605070949991E-02   2.298356191347113E-02   2.356536762784578E-02
   2.416187731461725E-02   2.477367652696068E-02   2.540067243980897E-02
   2.604375210867181E-02   2.670327347177863E-02   2.737922373275499E-02
   2.807224982923337E-02   2.878293014257743E-02   2.951154897601339E-02
   3.025842352331924E-02   3.102450356095963E-02   3.180997118105326E-02
   3.261509520368303E-02   3.344094835783595E-02   3.428740021666642E-02
   3.515552256801843E-02   3.604522050142131E-02   3.695804602186756E-02
   3.789339955532678E-02   3.885276607727403E-02   3.983622654318764E-02
   4.084449696563364E-02   4.187866879621802E-02   4.293874098682265E-02
   4.402569145300475E-02   4.514036577062736E-02   4.628284611669994E-02
   4.745470980871117E-02   4.865579342203610E-02   4.988744988464419E-02
   5.115057619911287E-02   5.244531693608304E-02   5.377291928953842E-02
   5.513411756699341E-02   5.652979394928090E-02   5.796088261531751E-02
   5.942795621622837E-02   6.093234430516531E-02   6.247473391913869E-02
   6.405661118065281E-02   6.567789424280299E-02   6.734034384270773E-02
   6.904525337219827E-02   7.079287691094260E-02   7.258501879548207E-02
   7.442225101201821E-02   7.630644287307753E-02   7.823775488953727E-02
   8.021819617992337E-02   8.224885658757419E-02   8.433084576299810E-02
   8.646569665789111E-02   8.865424228572144E-02   9.089854612161236E-02
   9.319945962050175E-02   9.555861011457173E-02   9.797730362673818E-02
   1.004576148422445E-01   1.030004674440016E-01   1.056075541604877E-01
   1.082811196872105E-01   1.110216241683128E-01   1.138321722216760E-01
   1.167134728947182E-01   1.196677038008340E-01   1.226969417269663E-01
   1.258028301847768E-01   1.289869626393728E-01   1.322518976057600E-01
   1.355995482089474E-01   1.390318688461915E-01   1.425512357544320E-01
   1.461592658100959E-01   1.498589613820375E-01   1.536524116955585E-01
   1.575411816094549E-01   1.615291292196039E-01   1.656174756683584E-01
   1.698096540956545E-01   1.741076876107382E-01   1.785143950326437E-01
   1.830331901309267E-01   1.876658170529626E-01   1.924156966330736E-01
   1.972859847668073E-01   2.022792430238896E-01   2.073993255732558E-01
   2.126484282319916E-01   2.180309241534648E-01   2.235491995762736E-01
   2.292073103076494E-01   2.350086435602005E-01   2.409566069538223E-01
   2.470551300136722E-01   2.533079245264526E-01   2.597189410179236E-01
   2.662922912313886E-01   2.730319881303771E-01   2.799421714975541E-01
   2.870270285070040E-01   2.942915481007782E-01   3.017393986624530E-01
   3.093760400758592E-01   3.172055715764126E-01   3.252335061919631E-01
   3.334644231423913E-01   3.419036992688669E-01   3.505564317568692E-01
   3.594279332705173E-01   3.685239643907499E-01   3.778503392557082E-01
   3.874122657492229E-01   3.972161433395700E-01   4.072682410126161E-01
   4.175747414501390E-01   4.281390779179888E-01   4.389815465289792E-01
   4.500822111448097E-01   4.614655228520623E-01   4.731636852949184E-01
   4.851103038366351E-01   4.974134864841055E-01   5.099777351835200E-01
   5.228896421004385E-01   5.361258700289835E-01   5.496825923159006E-01
   5.635903003215832E-01   5.778573472323449E-01   5.924763106990616E-01
   6.074689904054931E-01   6.228378807452497E-01   6.385847550486519E-01
   6.547591730952229E-01   6.713201807917950E-01   6.882935142298665E-01
   7.057149559767888E-01   7.235715429776635E-01   7.418762241788071E-01
   7.606365634407815E-01   7.798833127000315E-01   7.996201208689748E-01
   8.198368133056730E-01   8.405811396799825E-01   8.618459217457306E-01
   8.836448587464574E-01   9.059884254181991E-01   9.289196843975951E-01
   9.524108425563176E-01   9.764948205307413E-01   1.001196241462219E+00
   1.026524346079408E+00   1.052476400965248E+00   1.079109191977749E+00
   1.106381935624106E+00   1.134376630398424E+00   1.163061813519108E+00
   1.192466009528494E+00   1.222632464644489E+00   1.253542492418561E+00
   1.285240160038270E+00   1.317739066906618E+00   1.351063198622666E+00
   1.385218649422749E+00   1.420243974168453E+00   1.456140847317830E+00
   1.492987173990554E+00   1.530690812621058E+00   1.569417172538301E+00
   1.609064495049227E+00   1.649767897131047E+00   1.691446060603067E+00
   1.734218593477402E+00   1.778040843154187E+00   1.822982912971013E+00
   1.869057781576279E+00   1.916278747652584E+00   1.964728538933016E+00
   2.014375087209261E+00   2.065256234926540E+00   2.117458804130903E+00
   2.170956060379850E+00   2.225806408821622E+00   2.282052464619262E+00
   2.339669583192839E+00   2.398816664141576E+00   2.459362154500221E+00
   2.521536279952395E+00   2.585188281964310E+00   2.650496298311026E+00
   2.717417796333391E+00   2.786063611422605E+00   2.856403877065954E+00
   2.928518694646762E+00   3.002473118655862E+00   3.078273251544809E+00
   3.155970399713830E+00   3.235643352963816E+00   3.317326142662466E+00
   3.401044706431446E+00   3.486869110489232E+00   3.574884094969072E+00
   3.665065847117456E+00   3.757549117156294E+00   3.852361112544690E+00
   3.949530642292556E+00   4.049158841763619E+00   4.151285933021496E+00
   4.255995109502189E+00   4.363306177725761E+00   4.473338783890330E+00
   4.586118287880844E+00   4.701741641166336E+00   4.820242642710618E+00
   4.941760895303847E+00   5.066287242344409E+00   5.193949030319136E+00
   5.324825073312105E+00   5.458978145224719E+00   5.596477315158570E+00
   5.737441787430839E+00   5.881928671221846E+00   6.030041863463715E+00
   6.181851587208381E+00   6.337475399841697E+00   6.496979791692329E+00
   6.660488936872664E+00   6.828083175462812E+00   6.999859939331550E+00
   7.175942471344069E+00   7.356413796255787E+00   7.541399587058322E+00
   7.731007301025748E+00   7.925342500000237E+00   8.124528089616700E+00
   8.328684458061108E+00   8.537925793750940E+00   8.752394602082106E+00
   8.972189157077072E+00   9.197470894006258E+00   9.428358358159592E+00
   9.664988434550459E+00   9.907504250006490E+00   1.015605458107675E+01
   1.041077016015056E+01   1.067182232452782E+01   1.093935297705210E+01
   1.121351555201391E+01   1.149448583760725E+01   1.178241325136494E+01
   1.207748025265476E+01   1.237985009325609E+01   1.268969594573753E+01
   1.300721141678593E+01   1.333257227664594E+01   1.366596924674852E+01
   1.400759811680629E+01   1.435764474875123E+01   1.471633230682409E+01
   1.508385005435059E+01   1.546041525762341E+01   1.584623921053689E+01
   1.624155245915264E+01   1.664657380343329E+01   1.706153343155906E+01
   1.748666479895221E+01   1.792222112718373E+01   1.836843054472729E+01
   1.882555796552103E+01   1.929385601300956E+01   1.977358459293919E+01
   2.026501497710782E+01   2.076841780081355E+01   2.128407493576583E+01
   2.181227306420013E+01   2.235329640204824E+01   2.290744894582099E+01
   2.347503554688656E+01   2.405635545015780E+01   2.465173611353292E+01
   2.526149064677958E+01   2.588595797221616E+01   2.652546128976479E+01
   2.718035138092847E+01   2.785097348171625E+01   2.853768373817893E+01
   2.924084211784339E+01   2.996082080637314E+01   3.069799240365138E+01
   3.145274433683737E+01   3.222546063897573E+01   3.301654514819805E+01
   3.382639394452018E+01   3.465542775033839E+01   3.550405802571764E+01
   3.637271255713641E+01   3.726182622781523E+01   3.817183769729962E+01
   3.910319336230654E+01   4.005635218336637E+01   4.103177154460153E+01
   4.202992308816897E+01   4.305128347309082E+01   4.409633407069606E+01
   4.516556704251488E+01   4.625948024067770E+01   4.737857685735798E+01
   4.852336712147357E+01   4.969437155973324E+01   5.089211079654024E+01
   5.211711684141324E+01   5.336992789444258E+01   5.465108264258055E+01
   5.596113408166448E+01   5.730062945380325E+01   5.867013458747022E+01
   6.007020875451317E+01   6.150141958978557E+01   6.296434382600117E+01
   6.445955398655661E+01   6.598762954081363E+01   6.754915520316291E+01
   6.914471557436016E+01   7.077489563494464E+01   7.244028583100226E+01
   7.414147357107728E+01   7.587904906286741E+01   7.765359912313548E+01
   7.946571256806800E+01   8.131597148796436E+01   8.320496092358275E+01
   8.513325524032430E+01   8.710142929786375E+01   8.911004798243684E+01
   9.115967161498091E+01   9.325085070644079E+01   9.538412727900882E+01
   9.756003072334778E+01   9.977907960752921E+01   1.020417779867435E+02
   1.043486144776906E+02   1.067000595035557E+02   1.090965671429382E+02
   1.115385669012974E+02   1.140264689825886E+02   1.165606563670221E+02
   1.191414848011539E+02   1.217692825659526E+02   1.244443428759282E+02
   1.271669265327918E+02   1.299372567427114E+02   1.327555151591053E+02
   1.356218414648595E+02   1.385363277729926E+02   1.414990181484715E+02
   1.445099013954143E+02   1.475689094987360E+02   1.506759164451912E+02
   1.538307261686032E+02   1.570330793850354E+02   1.602826383119559E+02
   1.635789907155014E+02   1.669216395777801E+02   1.703100002881623E+02
   1.737433954459556E+02   1.772210490994049E+02   1.807420802733658E+02
   1.843054992302495E+02   1.879101985908275E+02   1.915549493080380E+02
   1.952383920545135E+02   1.989590325657138E+02   2.027152327397297E+02
   2.065052038531204E+02   2.103269988140721E+02   2.141785057944898E+02
   2.180574373697406E+02   2.219613247850119E+02   2.258875079075949E+02
   2.298331272111453E+02   2.337951143015960E+02   2.377701826112835E+02
   2.417548188817729E+02   2.457452723811372E+02   2.497375457288512E+02
   2.537273851702628E+02   2.577102700426682E+02   2.616814021485454E+02
   2.656356971063519E+02   2.695677723313880E+02   2.734719379191371E+02
   2.773421844841114E+02   2.811721763650778E+02   2.849552376708079E+02
   2.886843446860726E+02   2.923521157455814E+02   2.959508009916203E+02
   2.994722747152290E+02   3.029080260078015E+02   3.062491499480705E+02
   3.094863428817657E+02   3.126098921047151E+02   3.156096735999159E+02
   3.184751456145977E+02   3.211953442538521E+02   3.237588839377033E+02
   3.261539532340838E+02   3.283683179950689E+02   3.303893230085520E+02
   3.322038958589944E+02   3.337985557680188E+02   3.351594200032428E+02
   3.362722169805404E+02   3.371223018835406E+02   3.376946728620992E+02
   3.379739926520147E+02   3.379446152981411E+02   3.375906124400358E+02
   3.368958092956721E+02   3.358438213026170E+02   3.344180983542342E+02
   3.326019725207193E+02   3.303787130701171E+02   3.277315869567633E+02
   3.246439254467441E+02   3.210991993258644E+02   3.170810983575743E+02
   3.125736229141808E+02   3.075611784409316E+02   3.020286827102191E+02
   2.959616800165522E+02   2.893464637166676E+02   2.821702110735687E+02
   2.744211230675128E+02   2.660885799672869E+02   2.571633017972226E+02
   2.476375216588240E+02   2.375051696638538E+02   2.267620648322654E+02
   2.154061182463320E+02   2.034375470344821E+02   1.908590949498312E+02
   1.776762638796372E+02   1.638975518890766E+02   1.495346994320216E+02
   1.346029402315453E+02   1.191212569762893E+02   1.031126408207383E+02
   8.660434868203265E+01   6.962816380885761E+01   5.222064730120201E+01
   3.442338626174387E+01   1.628322929110800E+01  -2.147490821753308E+00
  -2.081075428501572E+01  -3.964267321161242E+01  -5.857334079008069E+01
  -7.752671286647455E+01  -9.642053160539217E+01  -1.151662976230546E+02
  -1.336692931014331E+02  -1.518286745766291E+02  -1.695376309719268E+02
  -1.866836287361511E+02  -2.031487438900458E+02  -2.188100986433910E+02
  -2.335404091290420E+02  -2.472086584571352E+02  -2.596809053710003E+02
  -2.708212419167212E+02  -2.804929117018855E+02  -2.885596043252826E+02
  -2.948869326566664E+02  -2.993441150646122E+02  -3.018058651238589E+02
  -3.021545081697213E+02  -3.002823333531924E+02  -2.960941906099943E+02
  -2.895103438019551E+02  -2.804695871511103E+02  -2.689326300899766E+02
  -2.548857551365754E+02  -2.383447491445741E+02  -2.193591076554367E+02
  -1.980165039957938E+02  -1.744475161838936E+02  -1.488305965350037E+02
  -1.213972636742637E+02  -9.243749361410391E+01  -6.230527680969135E+01
  -3.142539966211825E+01  -2.969257958529852E-01   3.051089441343811E+01
   6.044721804634196E+01   8.867118030038864E+01   1.144175153679566E+02
   1.368061451429054E+02   1.548727541842891E+02   1.675673395888917E+02
   1.737535676363907E+02   1.722089170329449E+02   1.616273317857830E+02
   1.406092425567035E+02   1.077877806949646E+02   6.064712349206427E+01
   7.064086572601243E+00  -7.058858385744645E-01   6.325687313365000E-02
  -1.413996474661804E-02  -7.546418994469700E-03  -9.220207564120148E-03
  -1.002052731841536E-02  -1.081342002033502E-02  -1.161628502949907E-02
  -1.233673527773663E-02  -1.301431866401818E-02  -1.364668164650347E-02
  -1.423572613293742E-02  -1.478290082637825E-02  -1.528956887709769E-02
  -1.575727810366644E-02  -1.618734934069559E-02  -1.658117887553676E-02
  -1.694009883256607E-02  -1.726547525637587E-02  -1.755855955569231E-02
  -1.782060741878977E-02  -1.805289734312775E-02  -1.825654666802119E-02
  -1.843279450400596E-02  -1.858272384456044E-02  -1.870744367765156E-02
  -1.880804776389407E-02  -1.888551634406759E-02  -1.894089168816670E-02
   0.000000000000000E+00   0.000000000000000E+00   0.000000000000000E+00
   0.000000000000000E+00   0.000000000000000E+00   0.000000000000000E+00
   0.000000000000000E+00   0.000000000000000E+00   0.000000000000000E+00
   0.000000000000000E+00   0.000000000000000E+00   0.000000000000000E+00
   0.000000000000000E+00   0.000000000000000E+00   0.000000000000000E+00
   0.000000000000000E+00   0.000000000000000E+00   0.000000000000000E+00
   0.000000000000000E+00   0.000000000000000E+00   0.000000000000000E+00
   0.000000000000000E+00   0.000000000000000E+00   0.000000000000000E+00
   0.000000000000000E+00   0.000000000000000E+00   0.000000000000000E+00
   0.000000000000000E+00   0.000000000000000E+00   0.000000000000000E+00
   0.000000000000000E+00   0.000000000000000E+00   0.000000000000000E+00
   0.000000000000000E+00   0.000000000000000E+00   0.000000000000000E+00
   0.000000000000000E+00   0.000000000000000E+00   0.000000000000000E+00
   0.000000000000000E+00   0.000000000000000E+00   0.000000000000000E+00
   0.000000000000000E+00   0.000000000000000E+00   0.000000000000000E+00
   0.000000000000000E+00   0.000000000000000E+00   0.000000000000000E+00
   0.000000000000000E+00   0.000000000000000E+00   0.000000000000000E+00
   0.000000000000000E+00   0.000000000000000E+00   0.000000000000000E+00
   0.000000000000000E+00   0.000000000000000E+00   0.000000000000000E+00
   0.000000000000000E+00   0.000000000000000E+00   0.000000000000000E+00
   0.000000000000000E+00   0.000000000000000E+00   0.000000000000000E+00
   0.000000000000000E+00   0.000000000000000E+00   0.000000000000000E+00
   0.000000000000000E+00   0.000000000000000E+00   0.000000000000000E+00
   0.000000000000000E+00   0.000000000000000E+00   0.000000000000000E+00
   0.000000000000000E+00   0.000000000000000E+00   0.000000000000000E+00
   0.000000000000000E+00   0.000000000000000E+00   0.000000000000000E+00
   0.000000000000000E+00   0.000000000000000E+00   0.000000000000000E+00
   0.000000000000000E+00   0.000000000000000E+00   0.000000000000000E+00
   0.000000000000000E+00   0.000000000000000E+00   0.000000000000000E+00
   0.000000000000000E+00   0.000000000000000E+00   0.000000000000000E+00
   0.000000000000000E+00   0.000000000000000E+00   0.000000000000000E+00
   0.000000000000000E+00   0.000000000000000E+00   0.000000000000000E+00
   0.000000000000000E+00   0.000000000000000E+00   0.000000000000000E+00
   0.000000000000000E+00   0.000000000000000E+00   0.000000000000000E+00
   0.000000000000000E+00   0.000000000000000E+00   0.000000000000000E+00
   0.000000000000000E+00   0.000000000000000E+00   0.000000000000000E+00
   0.000000000000000E+00   0.000000000000000E+00   0.000000000000000E+00
   0.000000000000000E+00   0.000000000000000E+00   0.000000000000000E+00
   0.000000000000000E+00   0.000000000000000E+00   0.000000000000000E+00
   0.000000000000000E+00   0.000000000000000E+00   0.000000000000000E+00
   0.000000000000000E+00   0.000000000000000E+00   0.000000000000000E+00
   0.000000000000000E+00   0.000000000000000E+00   0.000000000000000E+00
   0.000000000000000E+00   0.000000000000000E+00   0.000000000000000E+00
   0.000000000000000E+00   0.000000000000000E+00   0.000000000000000E+00
   0.000000000000000E+00   0.000000000000000E+00   0.000000000000000E+00
   0.000000000000000E+00   0.000000000000000E+00   0.000000000000000E+00
   0.000000000000000E+00   0.000000000000000E+00   0.000000000000000E+00
   0.000000000000000E+00   0.000000000000000E+00   0.000000000000000E+00
   0.000000000000000E+00   0.000000000000000E+00   0.000000000000000E+00
   0.000000000000000E+00   0.000000000000000E+00   0.000000000000000E+00
   0.000000000000000E+00   0.000000000000000E+00   0.000000000000000E+00
   0.000000000000000E+00   0.000000000000000E+00   0.000000000000000E+00
   0.000000000000000E+00   0.000000000000000E+00   0.000000000000000E+00
   0.000000000000000E+00   0.000000000000000E+00   0.000000000000000E+00
   0.000000000000000E+00   0.000000000000000E+00   0.000000000000000E+00
   0.000000000000000E+00   0.000000000000000E+00   0.000000000000000E+00
   0.000000000000000E+00   0.000000000000000E+00   0.000000000000000E+00
   0.000000000000000E+00   0.000000000000000E+00   0.000000000000000E+00
   0.000000000000000E+00   0.000000000000000E+00   0.000000000000000E+00
   0.000000000000000E+00   0.000000000000000E+00   0.000000000000000E+00
   0.000000000000000E+00   0.000000000000000E+00   0.000000000000000E+00
   0.000000000000000E+00   0.000000000000000E+00   0.000000000000000E+00
   0.000000000000000E+00   0.000000000000000E+00   0.000000000000000E+00
   0.000000000000000E+00   0.000000000000000E+00   0.000000000000000E+00
   0.000000000000000E+00   0.000000000000000E+00   0.000000000000000E+00
   0.000000000000000E+00   0.000000000000000E+00   0.000000000000000E+00
   0.000000000000000E+00   0.000000000000000E+00   0.000000000000000E+00
   0.000000000000000E+00   0.000000000000000E+00   0.000000000000000E+00
   0.000000000000000E+00   0.000000000000000E+00   0.000000000000000E+00
   0.000000000000000E+00   0.000000000000000E+00   0.000000000000000E+00
   0.000000000000000E+00   0.000000000000000E+00   0.000000000000000E+00
   0.000000000000000E+00   0.000000000000000E+00   0.000000000000000E+00
   0.000000000000000E+00   0.000000000000000E+00   0.000000000000000E+00
   0.000000000000000E+00   0.000000000000000E+00   0.000000000000000E+00
   0.000000000000000E+00   0.000000000000000E+00   0.000000000000000E+00
   0.000000000000000E+00   0.000000000000000E+00   0.000000000000000E+00
   0.000000000000000E+00   0.000000000000000E+00   0.000000000000000E+00
   0.000000000000000E+00   0.000000000000000E+00   0.000000000000000E+00
   0.000000000000000E+00   0.000000000000000E+00   0.000000000000000E+00
   0.000000000000000E+00   0.000000000000000E+00   0.000000000000000E+00
   0.000000000000000E+00   0.000000000000000E+00   0.000000000000000E+00
   0.000000000000000E+00   0.000000000000000E+00   0.000000000000000E+00
   0.000000000000000E+00   0.000000000000000E+00   0.000000000000000E+00
   0.000000000000000E+00   0.000000000000000E+00   0.000000000000000E+00
   0.000000000000000E+00   0.000000000000000E+00   0.000000000000000E+00
   0.000000000000000E+00   0.000000000000000E+00   0.000000000000000E+00
   0.000000000000000E+00   0.000000000000000E+00   0.000000000000000E+00
   0.000000000000000E+00   0.000000000000000E+00   0.000000000000000E+00
   0.000000000000000E+00   0.000000000000000E+00   0.000000000000000E+00
   0.000000000000000E+00   0.000000000000000E+00   0.000000000000000E+00
   0.000000000000000E+00   0.000000000000000E+00   0.000000000000000E+00
   0.000000000000000E+00   0.000000000000000E+00   0.000000000000000E+00
   0.000000000000000E+00   0.000000000000000E+00   0.000000000000000E+00
   0.000000000000000E+00   0.000000000000000E+00   0.000000000000000E+00
   0.000000000000000E+00   0.000000000000000E+00   0.000000000000000E+00
   0.000000000000000E+00   0.000000000000000E+00   0.000000000000000E+00
   0.000000000000000E+00   0.000000000000000E+00   0.000000000000000E+00
   0.000000000000000E+00   0.000000000000000E+00   0.000000000000000E+00
   0.000000000000000E+00   0.000000000000000E+00   0.000000000000000E+00
   0.000000000000000E+00   0.000000000000000E+00   0.000000000000000E+00
   0.000000000000000E+00   0.000000000000000E+00   0.000000000000000E+00
   0.000000000000000E+00   0.000000000000000E+00   0.000000000000000E+00
   0.000000000000000E+00   0.000000000000000E+00   0.000000000000000E+00
   0.000000000000000E+00   0.000000000000000E+00   0.000000000000000E+00
   0.000000000000000E+00   0.000000000000000E+00   0.000000000000000E+00
    </PP_BETA.4>
    <PP_DIJ columns="4" rows="4">
  0.53862474965752405       0.33810867790276999        0.0000000000000000        0.0000000000000000     
  0.33810867790276999       0.19670623043927637        0.0000000000000000        0.0000000000000000     
   0.0000000000000000        0.0000000000000000       0.63176060859673688       0.49656771305789604     
   0.0000000000000000        0.0000000000000000       0.49656771305789604       0.38648197267152873     
    </PP_DIJ>
    <PP_AUGMENTATION q_with_l="true" nqf="0" nqlc="3" shape="PSQ" cutoff_r="-1.0000000000000000" cutoff_r_index="769" augmentation_epsilon="9.9999999999999998E-013" l_max_aug="2">
      <PP_Q size="16">
 -0.15649483704052625      -0.12380233619170891        0.0000000000000000        0.0000000000000000     
 -0.12380233619170891       -9.9074345577880543E-002   0.0000000000000000        0.0000000000000000     
   0.0000000000000000        0.0000000000000000       0.14448767770321319       0.10146992272187477     
   0.0000000000000000        0.0000000000000000       0.10146992272187477        7.1142001736639163E-002
      </PP_Q>
<!--augmentation charge multipoles ( only for PAW) 
multipole array dims = (nbeta,nbeta,2*lmax+1)-->
      <PP_MULTIPOLES nbeta="4" lmax="1">
 -0.15649483704052625      -0.12380233619170891        0.0000000000000000        0.0000000000000000     
 -0.12380233619170891       -9.9074345577880543E-002   0.0000000000000000        0.0000000000000000     
   0.0000000000000000        0.0000000000000000       0.14448767770321319       0.10146992272187477     
   0.0000000000000000        0.0000000000000000       0.10146992272187477        7.1142001736639163E-002
   0.0000000000000000        0.0000000000000000       -6.8729325047649451E-003  -6.8554215536364930E-003
   0.0000000000000000        0.0000000000000000       -5.6847121977900974E-003  -5.3323829113466328E-003
  -6.8729325047649451E-003  -5.6847121977900974E-003   0.0000000000000000        0.0000000000000000     
  -6.8554215536364930E-003  -5.3323829113466328E-003   0.0000000000000000        0.0000000000000000     
   0.0000000000000000        0.0000000000000000        0.0000000000000000        0.0000000000000000     
   0.0000000000000000        0.0000000000000000        0.0000000000000000        0.0000000000000000     
   0.0000000000000000        0.0000000000000000        4.4673669033295560E-002   3.1261872327209984E-002
   0.0000000000000000        0.0000000000000000        3.1261872327209984E-002   2.1788822821590184E-002
      </PP_MULTIPOLES>
      <PP_QIJL.1.1.0 first_index="1" second_index="1" composite_index="1" angular_momentum="0" size="1095">
  -5.275716069811080E-08  -5.409271449534173E-08  -5.546207799359078E-08
  -5.686610708929222E-08  -5.830567934599062E-08  -5.978169454284530E-08
  -6.129507523702085E-08  -6.284676734031458E-08  -6.443774071038080E-08
  -6.606898975692313E-08  -6.774153406323091E-08  -6.945641902345135E-08
  -7.121471649599348E-08  -7.301752547347320E-08  -7.486597276961862E-08
  -7.676121372356306E-08  -7.870443292196860E-08  -8.069684493942976E-08
  -8.273969509762017E-08  -8.483426024365813E-08  -8.698184954817492E-08
  -8.918380532358766E-08  -9.144150386308600E-08  -9.375635630085822E-08
  -9.612980949409409E-08  -9.856334692731451E-08  -1.010584896395959E-07
  -1.036167971752664E-07  -1.062398685586686E-07  -1.089293432936000E-07
  -1.116869023880523E-07  -1.145142694048930E-07  -1.174132115391456E-07
  -1.203855407225397E-07  -1.234331147560248E-07  -1.265578384709511E-07
  -1.297616649196478E-07  -1.330465965961402E-07  -1.364146866877685E-07
  -1.398680403584934E-07  -1.434088160646853E-07  -1.470392269042256E-07
  -1.507615419997596E-07  -1.545780879169653E-07  -1.584912501187283E-07
  -1.625034744561255E-07  -1.666172686971557E-07  -1.708352040941696E-07
  -1.751599169909779E-07  -1.795941104706458E-07  -1.841405560449976E-07
  -1.888020953868946E-07  -1.935816421063638E-07  -1.984821835716889E-07
  -2.035067827766046E-07  -2.086585802547541E-07  -2.139407960426157E-07
  -2.193567316921184E-07  -2.249097723342064E-07  -2.306033887946453E-07
  -2.364411397633850E-07  -2.424266740188440E-07  -2.485637327084999E-07
  -2.548561516872118E-07  -2.613078639147394E-07  -2.679229019139521E-07
  -2.747054002912691E-07  -2.816595983209045E-07  -2.887898425945304E-07
  -2.961005897380190E-07  -3.035964091969540E-07  -3.112819860926616E-07
  -3.191621241505377E-07  -3.272417487025068E-07  -3.355259097654903E-07
  -3.440197851977989E-07  -3.527286839354345E-07  -3.616580493103165E-07
  -3.708134624525080E-07  -3.802006457785694E-07  -3.898254665682169E-07
  -3.996939406315258E-07  -4.098122360689665E-07  -4.201866771266254E-07
  -4.308237481490218E-07  -4.417300976319832E-07  -4.529125423781250E-07
  -4.643780717575212E-07  -4.761338520762323E-07  -4.881872310554257E-07
  -5.005457424238755E-07  -5.132171106267273E-07  -5.262092556534605E-07
  -5.395302979880677E-07  -5.531885636845527E-07  -5.671925895708998E-07
  -5.815511285847936E-07  -5.962731552444006E-07  -6.113678712576459E-07
  -6.268447112734888E-07  -6.427133487787782E-07  -6.589837021443986E-07
  -6.756659408244601E-07  -6.927704917124236E-07  -7.103080456581311E-07
  -7.282895641497988E-07  -7.467262861651739E-07  -7.656297351961193E-07
  -7.850117264510211E-07  -8.048843742395265E-07  -8.252600995442097E-07
  -8.461516377839221E-07  -8.675720467736604E-07  -8.895347148859343E-07
  -9.120533694187384E-07  -9.351420851753418E-07  -9.588152932612808E-07
  -9.830877901040348E-07  -1.007974746701029E-06  -1.033491718101748E-06
  -1.059654653129868E-06  -1.086479904351515E-06  -1.113984238295842E-06
  -1.142184845934347E-06  -1.171099353425457E-06  -1.200745833131102E-06
  -1.231142814912159E-06  -1.262309297709838E-06  -1.294264761420232E-06
  -1.327029179069466E-06  -1.360623029297033E-06  -1.395067309155140E-06
  -1.430383547232061E-06  -1.466593817107679E-06  -1.503720751149659E-06
  -1.541787554658819E-06  -1.580818020372609E-06  -1.620836543335710E-06
  -1.661868136147055E-06  -1.703938444592834E-06  -1.747073763675185E-06
  -1.791301054046665E-06  -1.836647958860719E-06  -1.883142821048687E-06
  -1.930814701034170E-06  -1.979693394895779E-06  -2.029809452989664E-06
  -2.081194199043443E-06  -2.133879749733432E-06  -2.187899034757481E-06
  -2.243285817415869E-06  -2.300074715713197E-06  -2.358301223994421E-06
  -2.418001735128559E-06  -2.479213563253949E-06  -2.541974967099208E-06
  -2.606325173894566E-06  -2.672304403888429E-06  -2.739953895484518E-06
  -2.809315931015337E-06  -2.880433863167960E-06  -2.953352142078797E-06
  -3.028116343114144E-06  -3.104773195353939E-06  -3.183370610796538E-06
  -3.263957714302637E-06  -3.346584874297279E-06  -3.431303734248856E-06
  -3.518167244944979E-06  -3.607229697585339E-06  -3.698546757712088E-06
  -3.792175499999229E-06  -3.888174443922425E-06  -3.986603590331761E-06
  -4.087524458950214E-06  -4.191000126821161E-06  -4.297095267729228E-06
  -4.405876192618730E-06  -4.517410891035275E-06  -4.631769073616284E-06
  -4.749022215656874E-06  -4.869243601778629E-06  -4.992508371728750E-06
  -5.118893567338556E-06  -5.248478180670508E-06  -5.381343203383718E-06
  -5.517571677349148E-06  -5.657248746545652E-06  -5.800461710269623E-06
  -5.947300077691403E-06  -6.097855623792320E-06  -6.252222446717743E-06
  -6.410497026581429E-06  -6.572778285758347E-06  -6.739167650703448E-06
  -6.909769115334834E-06  -7.084689306021372E-06  -7.264037548214769E-06
  -7.447925934768169E-06  -7.636469395983814E-06  -7.829785771433235E-06
  -8.027995883595458E-06  -8.231223613358441E-06  -8.439595977431514E-06
  -8.653243207716924E-06  -8.872298832689806E-06  -9.096899760838051E-06
  -9.327186366213383E-06  -9.563302576147649E-06  -9.805395961188928E-06
  -1.005361782731332E-05  -1.030812331047064E-05  -1.056907147352229E-05
  -1.083662540563236E-05  -1.111095232417398E-05  -1.139222367921395E-05
  -1.168061526064201E-05  -1.197630730801026E-05  -1.227948462315248E-05
  -1.259033668565301E-05  -1.290905777123716E-05  -1.323584707315783E-05
  -1.357090882665303E-05  -1.391445243655284E-05  -1.426669260811516E-05
  -1.462784948117149E-05  -1.499814876766749E-05  -1.537782189268287E-05
  -1.576710613901957E-05  -1.616624479544825E-05  -1.657548730870495E-05
  -1.699508943933402E-05  -1.742531342147308E-05  -1.786642812668084E-05
  -1.831870923190968E-05  -1.878243939172701E-05  -1.925790841489448E-05
  -1.974541344541326E-05  -2.024525914814978E-05  -2.075775789915727E-05
  -2.128322998081100E-05  -2.182200378188066E-05  -2.237441600266266E-05
  -2.294081186530171E-05  -2.352154532943226E-05  -2.411697931327409E-05
  -2.472748592032038E-05  -2.535344667175905E-05  -2.599525274477261E-05
  -2.665330521686511E-05  -2.732801531636790E-05  -2.801980467928124E-05
  -2.872910561261085E-05  -2.945636136436426E-05  -3.020202640037487E-05
  -3.096656668812597E-05  -3.175045998775218E-05  -3.255419615039876E-05
  -3.337827742412535E-05  -3.422321876754446E-05  -3.508954817138956E-05
  -3.597780698821384E-05  -3.688855027042421E-05  -3.782234711686148E-05
  -3.877978102814226E-05  -3.976145027098363E-05  -4.076796825173791E-05
  -4.179996389936901E-05  -4.285808205810993E-05  -4.394298389004461E-05
  -4.505534728786510E-05  -4.619586729806113E-05  -4.736525655480425E-05
  -4.856424572479769E-05  -4.979358396336763E-05  -5.105403938207964E-05
  -5.234639952817152E-05  -5.367147187609948E-05  -5.503008433150434E-05
  -5.642308574791025E-05  -5.785134645647680E-05  -5.931575880913434E-05
  -6.081723773543895E-05  -6.235672131349362E-05  -6.393517135529000E-05
  -6.555357400683334E-05  -6.721294036342475E-05  -6.891430710048046E-05
  -7.065873712028151E-05  -7.244732021505415E-05  -7.428117374679160E-05
  -7.616144334424066E-05  -7.808930361748282E-05  -8.006595889055494E-05
  -8.209264395256293E-05  -8.417062482775231E-05  -8.630119956501580E-05
  -8.848569904732341E-05  -9.072548782157904E-05  -9.302196494941601E-05
  -9.537656487945748E-05  -9.779075834158332E-05  -1.002660532637546E-04
  -1.028039957119641E-04  -1.054061708538934E-04  -1.080742039468716E-04
  -1.108097613507479E-04  -1.136145515663009E-04  -1.164903262998289E-04
  -1.194388815545768E-04  -1.224620587496721E-04  -1.255617458672632E-04
  -1.287398786285653E-04  -1.319984416995382E-04  -1.353394699269433E-04
  -1.387650496055349E-04  -1.422773197771731E-04  -1.458784735626516E-04
  -1.495707595270652E-04  -1.533564830795546E-04  -1.572380079082878E-04
  -1.612177574515635E-04  -1.652982164059372E-04  -1.694819322722979E-04
  -1.737715169408439E-04  -1.781696483159306E-04  -1.826790719817846E-04
  -1.873026029101083E-04  -1.920431272106196E-04  -1.969036039255974E-04
  -2.018870668695342E-04  -2.069966265150163E-04  -2.122354719259905E-04
  -2.176068727395933E-04  -2.231141811977550E-04  -2.287608342298208E-04
  -2.345503555874510E-04  -2.404863580331132E-04  -2.465725455834891E-04
  -2.528127158091668E-04  -2.592107621920188E-04  -2.657706765416905E-04
  -2.724965514726778E-04  -2.793925829434895E-04  -2.864630728594373E-04
  -2.937124317406327E-04  -3.011451814567994E-04  -3.087659580305651E-04
  -3.165795145109209E-04  -3.245907239185861E-04  -3.328045822650574E-04
  -3.412262116471565E-04  -3.498608634189493E-04  -3.587139214429382E-04
  -3.677909054224858E-04  -3.770974743174708E-04  -3.866394298452211E-04
  -3.964227200688301E-04  -4.064534430749984E-04  -4.167378507436008E-04
  -4.272823526112348E-04  -4.380935198310456E-04  -4.491780892311990E-04
  -4.605429674744093E-04  -4.721952353209957E-04  -4.841421519980029E-04
  -4.963911596769634E-04  -5.089498880629672E-04  -5.218261590977397E-04
  -5.350279917795091E-04  -5.485636071025043E-04  -5.624414331189796E-04
  -5.766701101267582E-04  -5.912584959853182E-04  -6.062156715635447E-04
  -6.215509463223329E-04  -6.372738640352841E-04  -6.533942086508493E-04
  -6.699220102993084E-04  -6.868675514480785E-04  -7.042413732089192E-04
  -7.220542818006594E-04  -7.403173551712011E-04  -7.590419497825858E-04
  -7.782397075630293E-04  -7.979225630299020E-04  -8.181027505877348E-04
  -8.387928120053870E-04  -8.600056040766570E-04  -8.817543064686564E-04
  -9.040524297623995E-04  -9.269138236901411E-04  -9.503526855740845E-04
  -9.743835689712129E-04  -9.990213925290619E-04  -1.024281449057375E-03
  -1.050179414820692E-03  -1.076731359056988E-03  -1.103953753727666E-03
  -1.131863483504219E-03  -1.160477855997068E-03  -1.189814612232152E-03
  -1.219891937380962E-03  -1.250728471749858E-03  -1.282343322034573E-03
  -1.314756072845981E-03  -1.347986798513288E-03  -1.382056075170923E-03
  -1.416984993135573E-03  -1.452795169579872E-03  -1.489508761509411E-03
  -1.527148479049877E-03  -1.565737599051185E-03  -1.605299979015695E-03
  -1.645860071357653E-03  -1.687442938001159E-03  -1.730074265324101E-03
  -1.773780379455570E-03  -1.818588261934504E-03  -1.864525565737334E-03
  -1.911620631682590E-03  -1.959902505220564E-03  -2.009400953616196E-03
  -2.060146483533574E-03  -2.112170359030487E-03  -2.165504619971619E-03
  -2.220182100869146E-03  -2.276236450159526E-03  -2.333702149925519E-03
  -2.392614536072493E-03  -2.453009818968250E-03  -2.514925104555709E-03
  -2.578398415947865E-03  -2.643468715514641E-03  -2.710175927471264E-03
  -2.778560960977941E-03  -2.848665733760749E-03  -2.920533196263638E-03
  -2.994207356341693E-03  -3.069733304505738E-03  -3.147157239728529E-03
  -3.226526495822848E-03  -3.307889568401791E-03  -3.391296142431751E-03
  -3.476797120388492E-03  -3.564444651026827E-03  -3.654292158774449E-03
  -3.746394373760374E-03  -3.840807362488650E-03  -3.937588559167760E-03
  -4.036796797706284E-03  -4.138492344385287E-03  -4.242736931217773E-03
  -4.349593790005664E-03  -4.459127687104461E-03  -4.571404958905754E-03
  -4.686493548047634E-03  -4.804463040362747E-03  -4.925384702573823E-03
  -5.049331520746035E-03  -5.176378239505492E-03  -5.306601402032876E-03
  -5.440079390840786E-03  -5.576892469343414E-03  -5.717122824226316E-03
  -5.860854608624102E-03  -6.008173986113165E-03  -6.159169175526120E-03
  -6.313930496594319E-03  -6.472550416423957E-03  -6.635123596810870E-03
  -6.801746942398427E-03  -6.972519649682053E-03  -7.147543256863476E-03
  -7.326921694556547E-03  -7.510761337345913E-03  -7.699171056198721E-03
  -7.892262271728338E-03  -8.090149008308369E-03  -8.292947949033598E-03
  -8.500778491523461E-03  -8.713762804562332E-03  -8.932025885569081E-03
  -9.155695618887405E-03  -9.384902834886114E-03  -9.619781369857252E-03
  -9.860468126697910E-03  -1.010710313635927E-02  -1.035982962004500E-02
  -1.061879405213792E-02  -1.088414622383235E-02  -1.115603930744630E-02
  -1.143462992138520E-02  -1.172007819572626E-02  -1.201254783838897E-02
  -1.231220620185447E-02  -1.261922435039286E-02  -1.293377712775395E-02
  -1.325604322527327E-02  -1.358620525034094E-02  -1.392444979517683E-02
  -1.427096750585098E-02  -1.462595315148333E-02  -1.498960569355207E-02
  -1.536212835523452E-02  -1.574372869069868E-02  -1.613461865425834E-02
  -1.653501466929739E-02  -1.694513769686405E-02  -1.736521330382734E-02
  -1.779547173048191E-02  -1.823614795747970E-02  -1.868748177195830E-02
  -1.914971783272884E-02  -1.962310573437607E-02  -2.010790007011518E-02
  -2.060436049324006E-02  -2.111275177698694E-02  -2.163334387262809E-02
  -2.216641196559804E-02  -2.271223652944362E-02  -2.327110337737750E-02
  -2.384330371120091E-02  -2.442913416734986E-02  -2.502889685980336E-02
  -2.564289941957921E-02  -2.627145503052698E-02  -2.691488246111197E-02
  -2.757350609186828E-02  -2.824765593818104E-02  -2.893766766804032E-02
  -2.964388261439111E-02  -3.036664778168291E-02  -3.110631584620443E-02
  -3.186324514976577E-02  -3.263779968627003E-02  -3.343034908069329E-02
  -3.424126855996756E-02  -3.507093891523857E-02  -3.591974645494318E-02
  -3.678808294812604E-02  -3.767634555738827E-02  -3.858493676083075E-02
  -3.951426426232900E-02  -4.046474088944353E-02  -4.143678447824024E-02
  -4.243081774426353E-02  -4.344726813887044E-02  -4.448656769010307E-02
  -4.554915282723902E-02  -4.663546418812545E-02  -4.774594640836589E-02
  -4.888104789138993E-02  -5.004122055840005E-02  -5.122691957714847E-02
  -5.243860306845814E-02  -5.367673178936149E-02  -5.494176879168794E-02
  -5.623417905489155E-02  -5.755442909186570E-02  -5.890298652644971E-02
  -6.028031964129007E-02  -6.168689689467290E-02  -6.312318640490494E-02
  -6.458965540077334E-02  -6.608676963657301E-02  -6.761499277014876E-02
  -6.917478570235353E-02  -7.076660587628869E-02  -7.239090653464626E-02
  -7.404813593343791E-02  -7.573873651035749E-02  -7.746314400598645E-02
  -7.922178653602273E-02  -8.101508361267924E-02  -8.284344511337215E-02
  -8.470727019479742E-02  -8.660694615046895E-02  -8.854284720978332E-02
  -9.051533327665888E-02  -9.252474860579664E-02  -9.457142041461061E-02
  -9.665565742888112E-02  -9.877774836020616E-02  -1.009379603133440E-01
  -1.031365371215786E-01  -1.053736976082813E-01  -1.076496337728964E-01
  -1.099645088996476E-01  -1.123184555873417E-01  -1.147115736987385E-01
  -1.171439282280696E-01  -1.196155470854114E-01  -1.221264187967674E-01
  -1.246764901188748E-01  -1.272656635679384E-01  -1.298937948617028E-01
  -1.325606902745026E-01  -1.352661039051941E-01  -1.380097348581509E-01
  -1.407912243378235E-01  -1.436101526577094E-01  -1.464660361649557E-01
  -1.493583240822331E-01  -1.522863952689690E-01  -1.552495549045180E-01
  -1.582470310963781E-01  -1.612779714171344E-01  -1.643414393744345E-01
  -1.674364108189616E-01  -1.705617702960915E-01  -1.737163073476844E-01
  -1.768987127712817E-01  -1.801075748448601E-01  -1.833413755262182E-01
  -1.865984866370694E-01  -1.898771660429625E-01  -1.931755538412588E-01
  -1.964916685705781E-01  -1.998234034563464E-01  -2.031685227083902E-01
  -2.065246578878727E-01  -2.098893043622907E-01  -2.132598178687367E-01
  -2.166334112071648E-01  -2.200071510869994E-01  -2.233779551520731E-01
  -2.267425892105724E-01  -2.300976646984199E-01  -2.334396364062878E-01
  -2.367648005022495E-01  -2.400692928839070E-01  -2.433490878956595E-01
  -2.465999974486317E-01  -2.498176705825940E-01  -2.529975935110079E-01
  -2.561350901920831E-01  -2.592253234704164E-01  -2.622632968353942E-01
  -2.652438568440288E-01  -2.681616962572685E-01  -2.710113579400248E-01
  -2.737872395761665E-01  -2.764835992505350E-01  -2.790945619505440E-01
  -2.816141270401770E-01  -2.840361767590824E-01  -2.863544857989698E-01
  -2.885627320086063E-01  -2.906545082772962E-01  -2.926233356448103E-01
  -2.944626776832144E-01  -2.961659561928860E-01  -2.977265682511626E-01
  -2.991379046474492E-01  -3.003933697331825E-01  -3.014864027087519E-01
  -3.024105003622235E-01  -3.031592412664885E-01  -3.037263114321633E-01
  -3.041055314031867E-01  -3.042908847705241E-01  -3.042765480666639E-01
  -3.040569219896513E-01  -3.036266638902151E-01  -3.029807214391056E-01
  -3.021143673740668E-01  -3.010232352069500E-01  -2.997033557513541E-01
  -2.981511943099369E-01  -2.963636883382419E-01  -2.943382853786547E-01
  -2.920729810340798E-01  -2.895663567262798E-01  -2.868176169587734E-01
  -2.838266257789872E-01  -2.805939421092838E-01  -2.771208535919264E-01
  -2.734094085693023E-01  -2.694624457983438E-01  -2.652836214774469E-01
  -2.608774331459022E-01  -2.562492400004872E-01  -2.514052791620118E-01
  -2.463526774170445E-01  -2.410994579573612E-01  -2.356545416427038E-01
  -2.300277423219692E-01  -2.242297557646738E-01  -2.182721417793723E-01
  -2.121672991292823E-01  -2.059284328984511E-01  -1.995695140150905E-01
  -1.931052307026053E-01  -1.865509317039611E-01  -1.799225612114398E-01
  -1.732365855316780E-01  -1.665099116249261E-01  -1.597597977771094E-01
  -1.530037567927555E-01  -1.462594522347486E-01  -1.395445883814730E-01
  -1.328767947209316E-01  -1.262735059518723E-01  -1.197518386104486E-01
  -1.133284655831241E-01  -1.070194898975518E-01  -1.008403192973514E-01
  -9.480554319756077E-02  -8.892881367801748E-02  -8.322273219410328E-02
  -7.769874365973864E-02  -7.236703947740594E-02  -6.723647094491830E-02
  -6.231447424951234E-02  -5.760700795735215E-02  -5.311850351224440E-02
  -4.885182876373493E-02  -4.480826394568034E-02  -4.098748881812785E-02
  -3.738757886668041E-02  -3.400500752714224E-02  -3.083465037613343E-02
  -2.786978611296707E-02  -2.510208797333915E-02  -2.252159798757435E-02
  -2.011667526014347E-02  -1.787390824723556E-02  -1.578052404232844E-02
  -1.383254256035926E-02  -1.202825215283476E-02  -1.036579705059681E-02
  -8.843133191933417E-03  -7.457975805439498E-03  -6.207738801475737E-03
  -5.089466146373400E-03  -4.099755522107174E-03  -3.234674715591690E-03
  -2.489675633345678E-03  -1.859510152466104E-03  -1.338119747076871E-03
  -9.185083648569625E-04  -5.926549379031698E-04  -3.513959023253577E-04
  -1.843182226592965E-04  -7.965260618303383E-05  -2.417147770061856E-05
  -3.093871893566913E-06   1.110223024625157E-16   0.000000000000000E+00
   0.000000000000000E+00   0.000000000000000E+00   0.000000000000000E+00
   0.000000000000000E+00   0.000000000000000E+00   0.000000000000000E+00
   0.000000000000000E+00   0.000000000000000E+00   0.000000000000000E+00
   0.000000000000000E+00   0.000000000000000E+00   0.000000000000000E+00
   0.000000000000000E+00   0.000000000000000E+00   0.000000000000000E+00
   0.000000000000000E+00   0.000000000000000E+00   0.000000000000000E+00
   0.000000000000000E+00   0.000000000000000E+00   0.000000000000000E+00
   0.000000000000000E+00   0.000000000000000E+00   0.000000000000000E+00
   0.000000000000000E+00   0.000000000000000E+00   0.000000000000000E+00
   0.000000000000000E+00   0.000000000000000E+00   0.000000000000000E+00
   0.000000000000000E+00   0.000000000000000E+00   0.000000000000000E+00
   0.000000000000000E+00   0.000000000000000E+00   0.000000000000000E+00
   0.000000000000000E+00   0.000000000000000E+00   0.000000000000000E+00
   0.000000000000000E+00   0.000000000000000E+00   0.000000000000000E+00
   0.000000000000000E+00   0.000000000000000E+00   0.000000000000000E+00
   0.000000000000000E+00   0.000000000000000E+00   0.000000000000000E+00
   0.000000000000000E+00   0.000000000000000E+00   0.000000000000000E+00
   0.000000000000000E+00   0.000000000000000E+00   0.000000000000000E+00
   0.000000000000000E+00   0.000000000000000E+00   0.000000000000000E+00
   0.000000000000000E+00   0.000000000000000E+00   0.000000000000000E+00
   0.000000000000000E+00   0.000000000000000E+00   0.000000000000000E+00
   0.000000000000000E+00   0.000000000000000E+00   0.000000000000000E+00
   0.000000000000000E+00   0.000000000000000E+00   0.000000000000000E+00
   0.000000000000000E+00   0.000000000000000E+00   0.000000000000000E+00
   0.000000000000000E+00   0.000000000000000E+00   0.000000000000000E+00
   0.000000000000000E+00   0.000000000000000E+00   0.000000000000000E+00
   0.000000000000000E+00   0.000000000000000E+00   0.000000000000000E+00
   0.000000000000000E+00   0.000000000000000E+00   0.000000000000000E+00
   0.000000000000000E+00   0.000000000000000E+00   0.000000000000000E+00
   0.000000000000000E+00   0.000000000000000E+00   0.000000000000000E+00
   0.000000000000000E+00   0.000000000000000E+00   0.000000000000000E+00
   0.000000000000000E+00   0.000000000000000E+00   0.000000000000000E+00
   0.000000000000000E+00   0.000000000000000E+00   0.000000000000000E+00
   0.000000000000000E+00   0.000000000000000E+00   0.000000000000000E+00
   0.000000000000000E+00   0.000000000000000E+00   0.000000000000000E+00
   0.000000000000000E+00   0.000000000000000E+00   0.000000000000000E+00
   0.000000000000000E+00   0.000000000000000E+00   0.000000000000000E+00
   0.000000000000000E+00   0.000000000000000E+00   0.000000000000000E+00
   0.000000000000000E+00   0.000000000000000E+00   0.000000000000000E+00
   0.000000000000000E+00   0.000000000000000E+00   0.000000000000000E+00
   0.000000000000000E+00   0.000000000000000E+00   0.000000000000000E+00
   0.000000000000000E+00   0.000000000000000E+00   0.000000000000000E+00
   0.000000000000000E+00   0.000000000000000E+00   0.000000000000000E+00
   0.000000000000000E+00   0.000000000000000E+00   0.000000000000000E+00
   0.000000000000000E+00   0.000000000000000E+00   0.000000000000000E+00
   0.000000000000000E+00   0.000000000000000E+00   0.000000000000000E+00
   0.000000000000000E+00   0.000000000000000E+00   0.000000000000000E+00
   0.000000000000000E+00   0.000000000000000E+00   0.000000000000000E+00
   0.000000000000000E+00   0.000000000000000E+00   0.000000000000000E+00
   0.000000000000000E+00   0.000000000000000E+00   0.000000000000000E+00
   0.000000000000000E+00   0.000000000000000E+00   0.000000000000000E+00
   0.000000000000000E+00   0.000000000000000E+00   0.000000000000000E+00
   0.000000000000000E+00   0.000000000000000E+00   0.000000000000000E+00
   0.000000000000000E+00   0.000000000000000E+00   0.000000000000000E+00
   0.000000000000000E+00   0.000000000000000E+00   0.000000000000000E+00
   0.000000000000000E+00   0.000000000000000E+00   0.000000000000000E+00
   0.000000000000000E+00   0.000000000000000E+00   0.000000000000000E+00
   0.000000000000000E+00   0.000000000000000E+00   0.000000000000000E+00
   0.000000000000000E+00   0.000000000000000E+00   0.000000000000000E+00
   0.000000000000000E+00   0.000000000000000E+00   0.000000000000000E+00
   0.000000000000000E+00   0.000000000000000E+00   0.000000000000000E+00
   0.000000000000000E+00   0.000000000000000E+00   0.000000000000000E+00
   0.000000000000000E+00   0.000000000000000E+00   0.000000000000000E+00
   0.000000000000000E+00   0.000000000000000E+00   0.000000000000000E+00
   0.000000000000000E+00   0.000000000000000E+00   0.000000000000000E+00
   0.000000000000000E+00   0.000000000000000E+00   0.000000000000000E+00
   0.000000000000000E+00   0.000000000000000E+00   0.000000000000000E+00
   0.000000000000000E+00   0.000000000000000E+00   0.000000000000000E+00
   0.000000000000000E+00   0.000000000000000E+00   0.000000000000000E+00
   0.000000000000000E+00   0.000000000000000E+00   0.000000000000000E+00
   0.000000000000000E+00   0.000000000000000E+00   0.000000000000000E+00
   0.000000000000000E+00   0.000000000000000E+00   0.000000000000000E+00
   0.000000000000000E+00   0.000000000000000E+00   0.000000000000000E+00
   0.000000000000000E+00   0.000000000000000E+00   0.000000000000000E+00
   0.000000000000000E+00   0.000000000000000E+00   0.000000000000000E+00
   0.000000000000000E+00   0.000000000000000E+00   0.000000000000000E+00
   0.000000000000000E+00   0.000000000000000E+00   0.000000000000000E+00
   0.000000000000000E+00   0.000000000000000E+00   0.000000000000000E+00
   0.000000000000000E+00   0.000000000000000E+00   0.000000000000000E+00
   0.000000000000000E+00   0.000000000000000E+00   0.000000000000000E+00
   0.000000000000000E+00   0.000000000000000E+00   0.000000000000000E+00
   0.000000000000000E+00   0.000000000000000E+00   0.000000000000000E+00
   0.000000000000000E+00   0.000000000000000E+00   0.000000000000000E+00
   0.000000000000000E+00   0.000000000000000E+00   0.000000000000000E+00
   0.000000000000000E+00   0.000000000000000E+00   0.000000000000000E+00
   0.000000000000000E+00   0.000000000000000E+00   0.000000000000000E+00
   0.000000000000000E+00   0.000000000000000E+00   0.000000000000000E+00
   0.000000000000000E+00   0.000000000000000E+00   0.000000000000000E+00
   0.000000000000000E+00   0.000000000000000E+00   0.000000000000000E+00
   0.000000000000000E+00   0.000000000000000E+00   0.000000000000000E+00
   0.000000000000000E+00   0.000000000000000E+00   0.000000000000000E+00
   0.000000000000000E+00   0.000000000000000E+00   0.000000000000000E+00
   0.000000000000000E+00   0.000000000000000E+00   0.000000000000000E+00
   0.000000000000000E+00   0.000000000000000E+00   0.000000000000000E+00
   0.000000000000000E+00   0.000000000000000E+00   0.000000000000000E+00
   0.000000000000000E+00   0.000000000000000E+00   0.000000000000000E+00
   0.000000000000000E+00   0.000000000000000E+00   0.000000000000000E+00
   0.000000000000000E+00   0.000000000000000E+00   0.000000000000000E+00
   0.000000000000000E+00   0.000000000000000E+00   0.000000000000000E+00
   0.000000000000000E+00   0.000000000000000E+00   0.000000000000000E+00
   0.000000000000000E+00   0.000000000000000E+00   0.000000000000000E+00
   0.000000000000000E+00   0.000000000000000E+00   0.000000000000000E+00
   0.000000000000000E+00   0.000000000000000E+00   0.000000000000000E+00
   0.000000000000000E+00   0.000000000000000E+00   0.000000000000000E+00
   0.000000000000000E+00   0.000000000000000E+00   0.000000000000000E+00
   0.000000000000000E+00   0.000000000000000E+00   0.000000000000000E+00
   0.000000000000000E+00   0.000000000000000E+00   0.000000000000000E+00
   0.000000000000000E+00   0.000000000000000E+00   0.000000000000000E+00
   0.000000000000000E+00   0.000000000000000E+00   0.000000000000000E+00
   0.000000000000000E+00   0.000000000000000E+00   0.000000000000000E+00
   0.000000000000000E+00   0.000000000000000E+00   0.000000000000000E+00
   0.000000000000000E+00   0.000000000000000E+00   0.000000000000000E+00
   0.000000000000000E+00   0.000000000000000E+00   0.000000000000000E+00
   0.000000000000000E+00   0.000000000000000E+00   0.000000000000000E+00
   0.000000000000000E+00   0.000000000000000E+00   0.000000000000000E+00
      </PP_QIJL.1.1.0>
      <PP_QIJL.1.2.0 first_index="1" second_index="2" composite_index="2" angular_momentum="0" size="1095">
  -4.606079627177422E-08  -4.722683080363109E-08  -4.842238363623871E-08
  -4.964820202873520E-08  -5.090505215720367E-08  -5.219371959355591E-08
  -5.351500979653996E-08  -5.486974861517705E-08  -5.625878280494301E-08
  -5.768298055701767E-08  -5.914323204093081E-08  -6.064044996094647E-08
  -6.217557012653160E-08  -6.374955203726614E-08  -6.536337948256084E-08
  -6.701806115655544E-08  -6.871463128858462E-08  -7.045415028960335E-08
  -7.223770541497666E-08  -7.406641144404857E-08  -7.594141137691296E-08
  -7.786387714882465E-08  -7.983501036269506E-08  -8.185604304013112E-08
  -8.392823839148740E-08  -8.605289160541054E-08  -8.823133065837287E-08
  -9.046491714469833E-08  -9.275504712760047E-08  -9.510315201176551E-08
  -9.751069943802324E-08  -9.997919420066788E-08  -1.025101791880004E-07
  -1.051052363466806E-07  -1.077659876704923E-07  -1.104940962141382E-07
  -1.132912671326996E-07  -1.161592487474101E-07  -1.190998336384090E-07
  -1.221148597651584E-07  -1.252062116152223E-07  -1.283758213821283E-07
  -1.316256701730468E-07  -1.349577892470412E-07  -1.383742612846671E-07
  -1.418772216897076E-07  -1.454688599238653E-07  -1.491514208752402E-07
  -1.529272062614510E-07  -1.567985760682775E-07  -1.607679500247193E-07
  -1.648378091153983E-07  -1.690106971312465E-07  -1.732892222594490E-07
  -1.776760587136381E-07  -1.821739484053521E-07  -1.867857026578105E-07
  -1.915142039630721E-07  -1.963624077836739E-07  -2.013333443998817E-07
  -2.064301208036993E-07  -2.116559226408277E-07  -2.170140162017841E-07
  -2.225077504634242E-07  -2.281405591821487E-07  -2.339159630400946E-07
  -2.398375718456608E-07  -2.459090867897382E-07  -2.521343027590553E-07
  -2.585171107080884E-07  -2.650615000910117E-07  -2.717715613552171E-07
  -2.786514884979529E-07  -2.857055816876847E-07  -2.929382499518185E-07
  -3.003540139324562E-07  -3.079575087119194E-07  -3.157534867097966E-07
  -3.237468206533298E-07  -3.319425066229971E-07  -3.403456671751897E-07
  -3.489615545439424E-07  -3.577955539237137E-07  -3.668531868352677E-07
  -3.761401145767658E-07  -3.856621417622154E-07  -3.954252199494999E-07
  -4.054354513602475E-07  -4.156990926938680E-07  -4.262225590381431E-07
  -4.370124278788061E-07  -4.480754432106283E-07  -4.594185197525742E-07
  -4.710487472696604E-07  -4.829733950042250E-07  -4.951999162193642E-07
  -5.077359528573944E-07  -5.205893403162331E-07  -5.337681123466963E-07
  -5.472805060737701E-07  -5.611349671449840E-07  -5.753401550091256E-07
  -5.899049483285737E-07  -6.048384505286455E-07  -6.201499954874258E-07
  -6.358491533696217E-07  -6.519457366081067E-07  -6.684498060368813E-07
  -6.853716771792832E-07  -7.027219266953873E-07  -7.205113989926047E-07
  -7.387512130036365E-07  -7.574527691360005E-07  -7.766277563974827E-07
  -7.962881597019661E-07  -8.164462673601931E-07  -8.371146787601600E-07
  -8.583063122419303E-07  -8.800344131717926E-07  -9.023125622208121E-07
  -9.251546838529392E-07  -9.485750550279945E-07  -9.725883141249572E-07
  -9.972094700911414E-07  -1.022453911822977E-06  -1.048337417784243E-06
  -1.074876165867792E-06  -1.102086743506908E-06  -1.129986158042615E-06
  -1.158591847353444E-06  -1.187921690754246E-06  -1.217994020170927E-06
  -1.248827631598045E-06  -1.280441796846438E-06  -1.312856275588244E-06
  -1.346091327706798E-06  -1.380167725959176E-06  -1.415106768959261E-06
  -1.450930294489457E-06  -1.487660693149379E-06  -1.525320922350023E-06
  -1.563934520662186E-06  -1.603525622528099E-06  -1.644118973345448E-06
  -1.685739944933237E-06  -1.728414551389125E-06  -1.772169465348174E-06
  -1.817032034653162E-06  -1.863030299446857E-06  -1.910193009696980E-06
  -1.958549643164734E-06  -2.008130423828207E-06  -2.058966340772111E-06
  -2.111089167555672E-06  -2.164531482070791E-06  -2.219326686902836E-06
  -2.275509030206862E-06  -2.333113627112232E-06  -2.392176481669061E-06
  -2.452734509350180E-06  -2.514825560122655E-06  -2.578488442103333E-06
  -2.643762945813147E-06  -2.710689869045349E-06  -2.779311042363243E-06
  -2.849669355243236E-06  -2.921808782879752E-06  -2.995774413668500E-06
  -3.071612477385468E-06  -3.149370374079186E-06  -3.229096703694212E-06
  -3.310841296444573E-06  -3.394655243955870E-06  -3.480590931195714E-06
  -3.568702069212360E-06  -3.659043728701910E-06  -3.751672374425299E-06
  -3.846645900496238E-06  -3.944023666562437E-06  -4.043866534902592E-06
  -4.146236908462236E-06  -4.251198769852459E-06  -4.358817721335527E-06
  -4.469161025822677E-06  -4.582297648909553E-06  -4.698298301975459E-06
  -4.817235486373650E-06  -4.939183538739881E-06  -5.064218677447795E-06
  -5.192419050240113E-06  -5.323864783065198E-06  -5.458638030149848E-06
  -5.596823025339178E-06  -5.738506134735999E-06  -5.883775910672433E-06
  -6.032723147047344E-06  -6.185440936064500E-06  -6.342024726406466E-06
  -6.502572382880892E-06  -6.667184247576372E-06  -6.835963202565805E-06
  -7.009014734196969E-06  -7.186446999009791E-06  -7.368370891322002E-06
  -7.554900112525191E-06  -7.746151242134320E-06  -7.942243810635585E-06
  -8.143300374177486E-06  -8.349446591152225E-06  -8.560811300715095E-06
  -8.777526603290605E-06  -8.999727943116281E-06  -9.227554192874823E-06
  -9.461147740468164E-06  -9.700654577987273E-06  -9.946224392933106E-06
  -1.019801066174621E-05  -1.045617074570257E-05  -1.072086598923627E-05
  -1.099226182075002E-05  -1.127052785597622E-05  -1.155583800395384E-05
  -1.184837057568628E-05  -1.214830839554878E-05  -1.245583891551474E-05
  -1.277115433227168E-05  -1.309445170730097E-05  -1.342593308999518E-05
  -1.376580564389059E-05  -1.411428177609342E-05  -1.447157926998021E-05
  -1.483792142125590E-05  -1.521353717745356E-05  -1.559866128096345E-05
  -1.599353441568067E-05  -1.639840335736196E-05  -1.681352112778706E-05
  -1.723914715281894E-05  -1.767554742446289E-05  -1.812299466702499E-05
  -1.858176850747319E-05  -1.905215565010833E-05  -1.953445005565261E-05
  -2.002895312486833E-05  -2.053597388682088E-05  -2.105582919190318E-05
  -2.158884390974240E-05  -2.213535113211172E-05  -2.269569238097416E-05
  -2.327021782178784E-05  -2.385928648220549E-05  -2.446326647630491E-05
  -2.508253523448956E-05  -2.571747973920305E-05  -2.636849676660397E-05
  -2.703599313435179E-05  -2.772038595565826E-05  -2.842210289976223E-05
  -2.914158245899049E-05  -2.987927422257078E-05  -3.063563915736722E-05
  -3.141114989571346E-05  -3.220629103052217E-05  -3.302155941785506E-05
  -3.385746448714158E-05  -3.471452855923902E-05  -3.559328717253266E-05
  -3.649428941727810E-05  -3.741809827839435E-05  -3.836529098692077E-05
  -3.933645938035605E-05  -4.033221027210421E-05  -4.135316583025631E-05
  -4.239996396594424E-05  -4.347325873150764E-05  -4.457372072872127E-05
  -4.570203752733722E-05  -4.685891409420094E-05  -4.804507323320884E-05
  -4.926125603638041E-05  -5.050822234632431E-05  -5.178675123038689E-05
  -5.309764146677646E-05  -5.444171204296572E-05  -5.581980266668182E-05
  -5.723277428980021E-05  -5.868150964546900E-05  -6.016691379879513E-05
  -6.168991471143562E-05  -6.325146382044319E-05  -6.485253663172473E-05
  -6.649413332848194E-05  -6.817727939500936E-05  -6.990302625623797E-05
  -7.167245193341983E-05  -7.348666171635916E-05  -7.534678885260800E-05
  -7.725399525405074E-05  -7.920947222131688E-05  -8.121444118646935E-05
  -8.327015447442722E-05  -8.537789608359508E-05  -8.753898248618045E-05
  -8.975476344869475E-05  -9.202662287314452E-05  -9.435597965943199E-05
  -9.674428858949890E-05  -9.919304123375777E-05  -1.017037668803713E-04
  -1.042780334879530E-04  -1.069174486622757E-04  -1.096236606575915E-04
  -1.123983594031797E-04  -1.152432775557540E-04  -1.181601915783804E-04
  -1.211509228465652E-04  -1.242173387821996E-04  -1.273613540160521E-04
  -1.305849315795295E-04  -1.338900841264350E-04  -1.372788751854756E-04
  -1.407534204442881E-04  -1.443158890657711E-04  -1.479685050375320E-04
  -1.517135485552740E-04  -1.555533574409761E-04  -1.594903285967276E-04
  -1.635269194951143E-04  -1.676656497070650E-04  -1.719091024680932E-04
  -1.762599262838937E-04  -1.807208365762697E-04  -1.852946173704031E-04
  -1.899841230244923E-04  -1.947922800028128E-04  -1.997220886932859E-04
  -2.047766252706543E-04  -2.099590436064085E-04  -2.152725772266179E-04
  -2.207205413188615E-04  -2.263063347894768E-04  -2.320334423723702E-04
  -2.379054367906780E-04  -2.439259809725783E-04  -2.500988303226025E-04
  -2.564278350498178E-04  -2.629169425542865E-04  -2.695701998732486E-04
  -2.763917561885002E-04  -2.833858653964801E-04  -2.905568887426163E-04
  -2.979092975215094E-04  -3.054476758445887E-04  -3.131767234768916E-04
  -3.211012587446763E-04  -3.292262215156081E-04  -3.375566762533000E-04
  -3.460978151480414E-04  -3.548549613255793E-04  -3.638335721358692E-04
  -3.730392425237566E-04  -3.824777084835886E-04  -3.921548505998199E-04
  -4.020766976757060E-04  -4.122494304522380E-04  -4.226793854195242E-04
  -4.333730587228606E-04  -4.443371101658118E-04  -4.555783673126473E-04
  -4.671038296925560E-04  -4.789206731081094E-04  -4.910362540504884E-04
  -5.034581142240804E-04  -5.161939851830713E-04  -5.292517930827494E-04
  -5.426396635482911E-04  -5.563659266638418E-04  -5.704391220848113E-04
  -5.848680042763241E-04  -5.996615478808623E-04  -6.148289532181980E-04
  -6.303796519207654E-04  -6.463233127077301E-04  -6.626698473010467E-04
  -6.794294164868921E-04  -6.966124363259294E-04  -7.142295845159389E-04
  -7.322918069104093E-04  -7.508103241968006E-04  -7.697966387382295E-04
  -7.892625415824299E-04  -8.092201196419303E-04  -8.296817630494439E-04
  -8.506601726925981E-04  -8.721683679321743E-04  -8.942196945081395E-04
  -9.168278326378444E-04  -9.400068053108241E-04  -9.637709867847741E-04
  -9.881351112873318E-04  -1.013114281928399E-03  -1.038723979827847E-03
  -1.064980073463523E-03  -1.091898828244593E-03  -1.119496916315350E-03
  -1.147791426594709E-03  -1.176799875056735E-03  -1.206540215257595E-03
  -1.237030849114527E-03  -1.268290637942420E-03  -1.300338913753766E-03
  -1.333195490827853E-03  -1.366880677555108E-03  -1.401415288562712E-03
  -1.436820657127622E-03  -1.473118647883294E-03  -1.510331669826505E-03
  -1.548482689630734E-03  -1.587595245272770E-03  -1.627693459979203E-03
  -1.668802056499669E-03  -1.710946371713752E-03  -1.754152371578581E-03
  -1.798446666424295E-03  -1.843856526604613E-03  -1.890409898509856E-03
  -1.938135420949919E-03  -1.987062441914691E-03  -2.037221035719680E-03
  -2.088642020544519E-03  -2.141356976372258E-03  -2.195398263337409E-03
  -2.250799040490719E-03  -2.307593284988885E-03  -2.365815811717372E-03
  -2.425502293354645E-03  -2.486689280886192E-03  -2.549414224576751E-03
  -2.613715495409283E-03  -2.679632406999233E-03  -2.747205237992707E-03
  -2.816475254957236E-03  -2.887484735773792E-03  -2.960276993538861E-03
  -3.034896400985281E-03  -3.111388415430612E-03  -3.189799604261887E-03
  -3.270177670965374E-03  -3.352571481710264E-03  -3.437031092494876E-03
  -3.523607776864107E-03  -3.612354054206767E-03  -3.703323718641249E-03
  -3.796571868498091E-03  -3.892154936407724E-03  -3.990130720001612E-03
  -4.090558413234907E-03  -4.193498638338434E-03  -4.299013478407843E-03
  -4.407166510637341E-03  -4.518022840205293E-03  -4.631649134818754E-03
  -4.748113659923492E-03  -4.867486314586076E-03  -4.989838668053911E-03
  -5.115243996998922E-03  -5.243777323450122E-03  -5.375515453419689E-03
  -5.510537016226983E-03  -5.648922504524042E-03  -5.790754315025728E-03
  -5.936116789947002E-03  -6.085096259148996E-03  -6.237781082995057E-03
  -6.394261695916854E-03  -6.554630650689989E-03  -6.718982663417538E-03
  -6.887414659218877E-03  -7.060025818620344E-03  -7.236917624642849E-03
  -7.418193910580509E-03  -7.603960908463137E-03  -7.794327298193751E-03
  -7.989404257351226E-03  -8.189305511646258E-03  -8.394147386017337E-03
  -8.604048856351718E-03  -8.819131601814115E-03  -9.039520057764488E-03
  -9.265341469243510E-03  -9.496725945002449E-03  -9.733806512051805E-03
  -9.976719170700076E-03  -1.022560295005215E-02  -1.048059996393312E-02
  -1.074185546720097E-02  -1.100951791240807E-02  -1.128373900676806E-02
  -1.156467376938151E-02  -1.185248058866957E-02  -1.214732127996112E-02
  -1.244936114317492E-02  -1.275876902053327E-02  -1.307571735424000E-02
  -1.340038224405000E-02  -1.373294350465252E-02  -1.407358472278559E-02
  -1.442249331399222E-02  -1.477986057892441E-02  -1.514588175909353E-02
  -1.552075609195972E-02  -1.590468686524601E-02  -1.629788147035504E-02
  -1.670055145475965E-02  -1.711291257322960E-02  -1.753518483774887E-02
  -1.796759256596935E-02  -1.841036442803658E-02  -1.886373349161515E-02
  -1.932793726492958E-02  -1.980321773762736E-02  -2.028982141925881E-02
  -2.078799937515731E-02  -2.129800725949152E-02  -2.182010534524833E-02
  -2.235455855089219E-02  -2.290163646343301E-02  -2.346161335761986E-02
  -2.403476821096392E-02  -2.462138471427723E-02  -2.522175127739876E-02
  -2.583616102976183E-02  -2.646491181543930E-02  -2.710830618228553E-02
  -2.776665136477420E-02  -2.844025926011206E-02  -2.912944639718818E-02
  -2.983453389789658E-02  -3.055584743034945E-02  -3.129371715347391E-02
  -3.204847765246302E-02  -3.282046786452703E-02  -3.361003099436498E-02
  -3.441751441875285E-02  -3.524326957961535E-02  -3.608765186492267E-02
  -3.695102047672468E-02  -3.783373828560488E-02  -3.873617167080868E-02
  -3.965869034526774E-02  -4.060166716471143E-02  -4.156547792002516E-02
  -4.255050111198000E-02  -4.355711770742769E-02  -4.458571087601793E-02
  -4.563666570646167E-02  -4.671036890132878E-02  -4.780720844933106E-02
  -4.892757327400809E-02  -5.007185285769418E-02  -5.124043683960960E-02
  -5.243371458688219E-02  -5.365207473726731E-02  -5.489590471229996E-02
  -5.616559019957404E-02  -5.746151460280841E-02  -5.878405845832583E-02
  -6.013359881653225E-02  -6.151050858695590E-02  -6.291515584536828E-02
  -6.434790310148150E-02  -6.580910652568710E-02  -6.729911513327205E-02
  -6.881826992452864E-02  -7.036690297914694E-02  -7.194533650326529E-02
  -7.355388182753707E-02  -7.519283835456030E-02  -7.686249245401416E-02
  -7.856311630384100E-02  -8.029496667581999E-02  -8.205828366388854E-02
  -8.385328935358320E-02  -8.568018643100192E-02  -8.753915672971695E-02
  -8.943035971411567E-02  -9.135393089769611E-02  -9.330998019490733E-02
  -9.529859020520326E-02  -9.731981442806274E-02  -9.937367540783233E-02
  -1.014601628073658E-01  -1.035792314095643E-01  -1.057307990460771E-01
  -1.079147444525836E-01  -1.101309050502754E-01  -1.123790746533593E-01
  -1.146590011026401E-01  -1.169703838255000E-01  -1.193128713228706E-01
  -1.216860585841091E-01  -1.240894844310289E-01  -1.265226287927047E-01
  -1.289849099130793E-01  -1.314756814938352E-01  -1.339942297754703E-01
  -1.365397705600291E-01  -1.391114461794943E-01  -1.417083224144372E-01
  -1.443293853681664E-01  -1.469735383022912E-01  -1.496395984403534E-01
  -1.523262937469534E-01  -1.550322596906289E-01  -1.577560359996217E-01
  -1.604960634205988E-01  -1.632506804913816E-01  -1.660181203397717E-01
  -1.687965075216586E-01  -1.715838549127373E-01  -1.743780606693690E-01
  -1.771769052753696E-01  -1.799780486928162E-01  -1.827790276363227E-01
  -1.855772529916341E-01  -1.883700074008416E-01  -1.911544430380101E-01
  -1.939275796005307E-01  -1.966863025430751E-01  -1.994273615825992E-01
  -2.021473695044451E-01  -2.048428013011890E-01  -2.075099936774805E-01
  -2.101451449557039E-01  -2.127443154188426E-01  -2.153034281284370E-01
  -2.178182702569767E-01  -2.202844949754317E-01  -2.226976239379007E-01
  -2.250530504064911E-01  -2.273460430605506E-01  -2.295717505351808E-01
  -2.317252067345814E-01  -2.338013369661574E-01  -2.357949649414106E-01
  -2.377008206894481E-01  -2.395135494283808E-01  -2.412277214389386E-01
  -2.428378429832584E-01  -2.443383683099354E-01  -2.457237127840423E-01
  -2.469882671778571E-01  -2.481264131544296E-01  -2.491325399718495E-01
  -2.500010624310425E-01  -2.507264400841216E-01  -2.513031977136616E-01
  -2.517259470857157E-01  -2.519894099709021E-01  -2.520884424184071E-01
  -2.520180602572367E-01  -2.517734657874735E-01  -2.513500756116242E-01
  -2.507435495423539E-01  -2.499498205080068E-01  -2.489651253612821E-01
  -2.477860364793204E-01  -2.464094940252761E-01  -2.448328387222632E-01
  -2.430538449704594E-01  -2.410707541172153E-01  -2.388823076683913E-01
  -2.364877802070002E-01  -2.338870117627350E-01  -2.310804393533766E-01
  -2.280691273966543E-01  -2.248547966691741E-01  -2.214398514679358E-01
  -2.178274046100532E-01  -2.140212998881149E-01  -2.100261315825693E-01
  -2.058472606191951E-01  -2.014908269496985E-01  -1.969637577273291E-01
  -1.922737708478849E-01  -1.874293734301830E-01  -1.824398548197582E-01
  -1.773152737159856E-01  -1.720664390466095E-01  -1.667048842456641E-01
  -1.612428346315160E-01  -1.556931676319336E-01  -1.500693656632387E-01
  -1.443854615410056E-01  -1.386559763808925E-01  -1.328958500398814E-01
  -1.271203642504648E-01  -1.213450587126527E-01  -1.155856405302712E-01
  -1.098578875078788E-01  -1.041775459610305E-01  -9.856022383360939E-02
  -9.302128005897867E-02  -8.757571124346777E-02  -8.223803688761962E-02
  -7.702218448804078E-02  -7.194137597560173E-02  -6.700801703825854E-02
  -6.223359094234173E-02  -5.762855849770294E-02  -5.320226580177207E-02
  -4.896286133717329E-02  -4.491722387851575E-02  -4.107090247750549E-02
  -3.742806953313763E-02  -3.399148760711936E-02  -3.076249020652940E-02
  -2.774097621993627E-02  -2.492541705541264E-02  -2.231287478730942E-02
  -1.989902877446717E-02  -1.767820727096010E-02  -1.564341952141832E-02
  -1.378638273199263E-02  -1.209753715740339E-02  -1.056604137390117E-02
  -9.179738655683146E-03  -7.925084285871579E-03  -6.788948387606242E-03
  -5.764755879378192E-03  -4.847541859601623E-03  -4.032150247442579E-03
  -3.313233415747574E-03  -2.685252448363540E-03  -2.142478993407471E-03
  -1.678999847376739E-03  -1.288725571005456E-03  -9.654046077729461E-04
  -7.026459804148066E-04  -4.939531004366504E-04  -3.327607918748587E-04
  -2.124819674946266E-04  -1.265835430536155E-04  -6.867003977475972E-05
  -3.259025022511741E-05  -1.256521855939885E-05  -3.340610675056643E-06
  -3.655609517733138E-07   1.387778780781446E-17   0.000000000000000E+00
   0.000000000000000E+00   0.000000000000000E+00   0.000000000000000E+00
   0.000000000000000E+00   0.000000000000000E+00   0.000000000000000E+00
   0.000000000000000E+00   0.000000000000000E+00   0.000000000000000E+00
   0.000000000000000E+00   0.000000000000000E+00   0.000000000000000E+00
   0.000000000000000E+00   0.000000000000000E+00   0.000000000000000E+00
   0.000000000000000E+00   0.000000000000000E+00   0.000000000000000E+00
   0.000000000000000E+00   0.000000000000000E+00   0.000000000000000E+00
   0.000000000000000E+00   0.000000000000000E+00   0.000000000000000E+00
   0.000000000000000E+00   0.000000000000000E+00   0.000000000000000E+00
   0.000000000000000E+00   0.000000000000000E+00   0.000000000000000E+00
   0.000000000000000E+00   0.000000000000000E+00   0.000000000000000E+00
   0.000000000000000E+00   0.000000000000000E+00   0.000000000000000E+00
   0.000000000000000E+00   0.000000000000000E+00   0.000000000000000E+00
   0.000000000000000E+00   0.000000000000000E+00   0.000000000000000E+00
   0.000000000000000E+00   0.000000000000000E+00   0.000000000000000E+00
   0.000000000000000E+00   0.000000000000000E+00   0.000000000000000E+00
   0.000000000000000E+00   0.000000000000000E+00   0.000000000000000E+00
   0.000000000000000E+00   0.000000000000000E+00   0.000000000000000E+00
   0.000000000000000E+00   0.000000000000000E+00   0.000000000000000E+00
   0.000000000000000E+00   0.000000000000000E+00   0.000000000000000E+00
   0.000000000000000E+00   0.000000000000000E+00   0.000000000000000E+00
   0.000000000000000E+00   0.000000000000000E+00   0.000000000000000E+00
   0.000000000000000E+00   0.000000000000000E+00   0.000000000000000E+00
   0.000000000000000E+00   0.000000000000000E+00   0.000000000000000E+00
   0.000000000000000E+00   0.000000000000000E+00   0.000000000000000E+00
   0.000000000000000E+00   0.000000000000000E+00   0.000000000000000E+00
   0.000000000000000E+00   0.000000000000000E+00   0.000000000000000E+00
   0.000000000000000E+00   0.000000000000000E+00   0.000000000000000E+00
   0.000000000000000E+00   0.000000000000000E+00   0.000000000000000E+00
   0.000000000000000E+00   0.000000000000000E+00   0.000000000000000E+00
   0.000000000000000E+00   0.000000000000000E+00   0.000000000000000E+00
   0.000000000000000E+00   0.000000000000000E+00   0.000000000000000E+00
   0.000000000000000E+00   0.000000000000000E+00   0.000000000000000E+00
   0.000000000000000E+00   0.000000000000000E+00   0.000000000000000E+00
   0.000000000000000E+00   0.000000000000000E+00   0.000000000000000E+00
   0.000000000000000E+00   0.000000000000000E+00   0.000000000000000E+00
   0.000000000000000E+00   0.000000000000000E+00   0.000000000000000E+00
   0.000000000000000E+00   0.000000000000000E+00   0.000000000000000E+00
   0.000000000000000E+00   0.000000000000000E+00   0.000000000000000E+00
   0.000000000000000E+00   0.000000000000000E+00   0.000000000000000E+00
   0.000000000000000E+00   0.000000000000000E+00   0.000000000000000E+00
   0.000000000000000E+00   0.000000000000000E+00   0.000000000000000E+00
   0.000000000000000E+00   0.000000000000000E+00   0.000000000000000E+00
   0.000000000000000E+00   0.000000000000000E+00   0.000000000000000E+00
   0.000000000000000E+00   0.000000000000000E+00   0.000000000000000E+00
   0.000000000000000E+00   0.000000000000000E+00   0.000000000000000E+00
   0.000000000000000E+00   0.000000000000000E+00   0.000000000000000E+00
   0.000000000000000E+00   0.000000000000000E+00   0.000000000000000E+00
   0.000000000000000E+00   0.000000000000000E+00   0.000000000000000E+00
   0.000000000000000E+00   0.000000000000000E+00   0.000000000000000E+00
   0.000000000000000E+00   0.000000000000000E+00   0.000000000000000E+00
   0.000000000000000E+00   0.000000000000000E+00   0.000000000000000E+00
   0.000000000000000E+00   0.000000000000000E+00   0.000000000000000E+00
   0.000000000000000E+00   0.000000000000000E+00   0.000000000000000E+00
   0.000000000000000E+00   0.000000000000000E+00   0.000000000000000E+00
   0.000000000000000E+00   0.000000000000000E+00   0.000000000000000E+00
   0.000000000000000E+00   0.000000000000000E+00   0.000000000000000E+00
   0.000000000000000E+00   0.000000000000000E+00   0.000000000000000E+00
   0.000000000000000E+00   0.000000000000000E+00   0.000000000000000E+00
   0.000000000000000E+00   0.000000000000000E+00   0.000000000000000E+00
   0.000000000000000E+00   0.000000000000000E+00   0.000000000000000E+00
   0.000000000000000E+00   0.000000000000000E+00   0.000000000000000E+00
   0.000000000000000E+00   0.000000000000000E+00   0.000000000000000E+00
   0.000000000000000E+00   0.000000000000000E+00   0.000000000000000E+00
   0.000000000000000E+00   0.000000000000000E+00   0.000000000000000E+00
   0.000000000000000E+00   0.000000000000000E+00   0.000000000000000E+00
   0.000000000000000E+00   0.000000000000000E+00   0.000000000000000E+00
   0.000000000000000E+00   0.000000000000000E+00   0.000000000000000E+00
   0.000000000000000E+00   0.000000000000000E+00   0.000000000000000E+00
   0.000000000000000E+00   0.000000000000000E+00   0.000000000000000E+00
   0.000000000000000E+00   0.000000000000000E+00   0.000000000000000E+00
   0.000000000000000E+00   0.000000000000000E+00   0.000000000000000E+00
   0.000000000000000E+00   0.000000000000000E+00   0.000000000000000E+00
   0.000000000000000E+00   0.000000000000000E+00   0.000000000000000E+00
   0.000000000000000E+00   0.000000000000000E+00   0.000000000000000E+00
   0.000000000000000E+00   0.000000000000000E+00   0.000000000000000E+00
   0.000000000000000E+00   0.000000000000000E+00   0.000000000000000E+00
   0.000000000000000E+00   0.000000000000000E+00   0.000000000000000E+00
   0.000000000000000E+00   0.000000000000000E+00   0.000000000000000E+00
   0.000000000000000E+00   0.000000000000000E+00   0.000000000000000E+00
   0.000000000000000E+00   0.000000000000000E+00   0.000000000000000E+00
   0.000000000000000E+00   0.000000000000000E+00   0.000000000000000E+00
   0.000000000000000E+00   0.000000000000000E+00   0.000000000000000E+00
   0.000000000000000E+00   0.000000000000000E+00   0.000000000000000E+00
   0.000000000000000E+00   0.000000000000000E+00   0.000000000000000E+00
   0.000000000000000E+00   0.000000000000000E+00   0.000000000000000E+00
   0.000000000000000E+00   0.000000000000000E+00   0.000000000000000E+00
   0.000000000000000E+00   0.000000000000000E+00   0.000000000000000E+00
   0.000000000000000E+00   0.000000000000000E+00   0.000000000000000E+00
   0.000000000000000E+00   0.000000000000000E+00   0.000000000000000E+00
   0.000000000000000E+00   0.000000000000000E+00   0.000000000000000E+00
   0.000000000000000E+00   0.000000000000000E+00   0.000000000000000E+00
   0.000000000000000E+00   0.000000000000000E+00   0.000000000000000E+00
   0.000000000000000E+00   0.000000000000000E+00   0.000000000000000E+00
   0.000000000000000E+00   0.000000000000000E+00   0.000000000000000E+00
   0.000000000000000E+00   0.000000000000000E+00   0.000000000000000E+00
   0.000000000000000E+00   0.000000000000000E+00   0.000000000000000E+00
   0.000000000000000E+00   0.000000000000000E+00   0.000000000000000E+00
   0.000000000000000E+00   0.000000000000000E+00   0.000000000000000E+00
   0.000000000000000E+00   0.000000000000000E+00   0.000000000000000E+00
   0.000000000000000E+00   0.000000000000000E+00   0.000000000000000E+00
   0.000000000000000E+00   0.000000000000000E+00   0.000000000000000E+00
   0.000000000000000E+00   0.000000000000000E+00   0.000000000000000E+00
   0.000000000000000E+00   0.000000000000000E+00   0.000000000000000E+00
   0.000000000000000E+00   0.000000000000000E+00   0.000000000000000E+00
   0.000000000000000E+00   0.000000000000000E+00   0.000000000000000E+00
   0.000000000000000E+00   0.000000000000000E+00   0.000000000000000E+00
   0.000000000000000E+00   0.000000000000000E+00   0.000000000000000E+00
   0.000000000000000E+00   0.000000000000000E+00   0.000000000000000E+00
   0.000000000000000E+00   0.000000000000000E+00   0.000000000000000E+00
   0.000000000000000E+00   0.000000000000000E+00   0.000000000000000E+00
   0.000000000000000E+00   0.000000000000000E+00   0.000000000000000E+00
   0.000000000000000E+00   0.000000000000000E+00   0.000000000000000E+00
   0.000000000000000E+00   0.000000000000000E+00   0.000000000000000E+00
   0.000000000000000E+00   0.000000000000000E+00   0.000000000000000E+00
      </PP_QIJL.1.2.0>
      <PP_QIJL.1.3.1 first_index="1" second_index="3" composite_index="4" angular_momentum="1" size="1095">
   7.000910485138801E-12   7.268429232173406E-12   7.546170403241574E-12
   7.834524617480822E-12   8.133897420359635E-12   8.444709854041845E-12
   8.767399049545936E-12   9.102418841531850E-12   9.450240406579915E-12
   9.811352925859870E-12   1.018626427312144E-11   1.057550172897464E-11
   1.097961272246402E-11   1.139916560097982E-11   1.183475042958920E-11
   1.228697982091105E-11   1.275648979670225E-11   1.324394068236671E-11
   1.375001803564524E-11   1.427543361079275E-11   1.482092635959804E-11
   1.538726347065493E-11   1.597524144834569E-11   1.658568723305461E-11
   1.721945936418717E-11   1.787744918763008E-11   1.856058210935104E-11
   1.926981889690080E-11   2.000615703064805E-11   2.077063210664787E-11
   2.156431929311592E-11   2.238833484255785E-11   2.324383766167974E-11
   2.413203094128788E-11   2.505416384847032E-11   2.601153328343939E-11
   2.700548570350702E-11   2.803741901675743E-11   2.910878454808046E-11
   3.022108908033130E-11   3.137589697348588E-11   3.257483236477407E-11
   3.381958145288356E-11   3.511189486944768E-11   3.645359014115249E-11
   3.784655424592468E-11   3.929274626679721E-11   4.079420014718362E-11
   4.235302755143642E-11   4.397142083471336E-11   4.565165612632661E-11
   4.739609653091370E-11   4.920719545193038E-11   5.108750004214025E-11
   5.303965478595489E-11   5.506640521866009E-11   5.717060178776210E-11
   5.935520386188229E-11   6.162328389283883E-11   6.397803173677008E-11
   6.642275914037424E-11   6.896090439857782E-11   7.159603719018167E-11
   7.433186359828507E-11   7.717223132255090E-11   8.012113509063833E-11
   8.318272227641826E-11   8.636129873286976E-11   8.966133484786160E-11
   9.308747183133738E-11   9.664452824274266E-11   1.003375067678787E-10
   1.041716012547110E-10   1.081522040180272E-10   1.122849134232220E-10
   1.165755417598668E-10   1.210301234161457E-10   1.256549233656504E-10
   1.304564459784676E-10   1.354414441689574E-10   1.406169288930784E-10
   1.459901790086264E-10   1.515687515122468E-10   1.573604921676213E-10
   1.633735465397761E-10   1.696163714510264E-10   1.760977468746750E-10
   1.828267882831865E-10   1.898129594682059E-10   1.970660858504523E-10
   2.045963682982015E-10   2.124143974737989E-10   2.205311687283734E-10
   2.289580975657023E-10   2.377070356969768E-10   2.467902877090397E-10
   2.562206283695492E-10   2.660113205933946E-10   2.761761340956382E-10
   2.867293647572168E-10   2.976858547306289E-10   3.090610133138975E-10
   3.208708386221540E-10   3.331319400873256E-10   3.458615618175723E-10
   3.590776068493125E-10   3.727986623259628E-10   3.870440256387879E-10
   4.018337315666286E-10   4.171885804526824E-10   4.331301674579457E-10
   4.496809129324806E-10   4.668640939472031E-10   4.847038770305421E-10
   5.032253521560146E-10   5.224545680284981E-10   5.424185687188470E-10
   5.631454316983583E-10   5.846643073265810E-10   6.070054598480073E-10
   6.302003099552841E-10   6.542814789788277E-10   6.792828347649659E-10
   7.052395393071381E-10   7.321880981971419E-10   7.601664119659474E-10
   7.892138293863196E-10   8.193712028121738E-10   8.506809456325105E-10
   8.831870919207256E-10   9.169353583631596E-10   9.519732085540163E-10
   9.883499197470331E-10   1.026116652157798E-09   1.065326520914173E-09
   1.106034670755980E-09   1.148298353589039E-09   1.192177009002608E-09
   1.237732347863431E-09   1.285028439104006E-09   1.334131799827047E-09
   1.385111488852934E-09   1.438039203841638E-09   1.492989382125748E-09
   1.550039305396373E-09   1.609269208389132E-09   1.670762391723101E-09
   1.734605339051372E-09   1.800887838687976E-09   1.869703109882232E-09
   1.941147933918026E-09   2.015322790222473E-09   2.092331997675294E-09
   2.172283861317642E-09   2.255290824666719E-09   2.341469627850273E-09
   2.430941471783494E-09   2.523832188619048E-09   2.620272418710007E-09
   2.720397794334525E-09   2.824349130440537E-09   2.932272622678836E-09
   3.044320053002871E-09   3.160649003124460E-09   3.281423076125596E-09
   3.406812126537782E-09   3.536992499212792E-09   3.672147277320313E-09
   3.812466539821531E-09   3.958147628780603E-09   4.109395426889709E-09
   4.266422645598349E-09   4.429450124251532E-09   4.598707140657839E-09
   4.774431733523990E-09   4.956871037209022E-09   5.146281629269338E-09
   5.342929891282631E-09   5.547092383458561E-09   5.759056233562734E-09
   5.979119540700620E-09   6.207591794529696E-09   6.444794310488574E-09
   6.691060681655612E-09   6.946737247872130E-09   7.212183582789574E-09
   7.487772999526111E-09   7.773893075642730E-09   8.070946198177661E-09
   8.379350129505188E-09   8.699538594814074E-09   9.031961892032484E-09
   9.377087525055746E-09   9.735400861168209E-09   1.010740581358310E-08
   1.049362555005961E-08   1.089460322859443E-08   1.131090276122079E-08
   1.174310960698984E-08   1.219183159524883E-08   1.265769978037291E-08
   1.314136932915357E-08   1.364352044208947E-08   1.416485930987628E-08
   1.470611910643947E-08   1.526806101990565E-08   1.585147532296305E-08
   1.645718248411410E-08   1.708603432138357E-08   1.773891520010363E-08
   1.841674327645863E-08   1.912047178853969E-08   1.985109039672138E-08
   2.060962657524642E-08   2.139714705697384E-08   2.221475933332044E-08
   2.306361321150591E-08   2.394490243128773E-08   2.485986634346044E-08
   2.580979165247747E-08   2.679601422564387E-08   2.781992097142526E-08
   2.888295178950938E-08   2.998660159536373E-08   3.113242242213357E-08
   3.232202560283267E-08   3.355708403589707E-08   3.483933453728145E-08
   3.617058028240645E-08   3.755269334138761E-08   3.898761731110690E-08
   4.047737004782894E-08   4.202404650419718E-08   4.362982167459979E-08
   4.529695365304298E-08   4.702778680782556E-08   4.882475507748069E-08
   5.069038539260891E-08   5.262730122841530E-08   5.463822629293956E-08
   5.672598835615853E-08   5.889352322534598E-08   6.114387887226689E-08
   6.348021971801001E-08   6.590583108147451E-08   6.842412379775951E-08
   7.103863901294491E-08   7.375305316199613E-08   7.657118313678631E-08
   7.949699165149333E-08   8.253459281290598E-08   8.568825790346484E-08
   8.896242138515534E-08   9.236168713268774E-08   9.589083490471452E-08
   9.955482706217156E-08   1.033588155431789E-07   1.073081491042901E-07
   1.114083808382608E-07   1.156652759788888E-07   1.200848200038812E-07
   1.246732270471276E-07   1.294369486321822E-07   1.343826827392187E-07
   1.395173832181819E-07   1.448482695613462E-07   1.503828370490003E-07
   1.561288672824907E-07   1.620944391194102E-07   1.682879400262731E-07
   1.747180778646047E-07   1.813938931269871E-07   1.883247716402202E-07
   1.955204577534262E-07   2.029910680295937E-07   2.107471054597659E-07
   2.187994742198129E-07   2.271594949904801E-07   2.358389208622017E-07
   2.448499538469820E-07   2.542052620204914E-07   2.639179973184230E-07
   2.740018140120477E-07   2.844708878888775E-07   2.953399361653193E-07
   3.066242381592272E-07   3.183396567513344E-07   3.305026606656277E-07
   3.431303475998975E-07   3.562404682388681E-07   3.698514511835419E-07
   3.839824288316980E-07   3.986532642457710E-07   4.138845790457977E-07
   4.296977823663231E-07   4.461151009182279E-07   4.631596101968306E-07
   4.808552668809177E-07   4.992269424670220E-07   5.183004581871307E-07
   5.381026212575072E-07   5.586612625103190E-07   5.800052754602221E-07
   6.021646568606761E-07   6.251705488068989E-07   6.490552824436153E-07
   6.738524233401863E-07   6.995968185945860E-07   7.263246457338359E-07
   7.540734634785245E-07   7.828822644416455E-07   8.127915298373242E-07
   8.438432862731814E-07   8.760811647085251E-07   9.095504616581651E-07
   9.442982027291249E-07   9.803732085781207E-07   1.017826163381854E-06
   1.056709685915926E-06   1.097078403341614E-06   1.138989027802734E-06
   1.182500435940759E-06   1.227673751437681E-06   1.274572430701887E-06
   1.323262351818337E-06   1.373811906883607E-06   1.426292097857400E-06
   1.480776636062994E-06   1.537342045474575E-06   1.596067769936070E-06
   1.657036284460101E-06   1.720333210762590E-06   1.786047437193226E-06
   1.854271243228170E-06   1.925100428698966E-06   1.998634447936886E-06
   2.074976549018440E-06   2.154233918306515E-06   2.236517830487117E-06
   2.321943804309834E-06   2.410631764248746E-06   2.502706208307643E-06
   2.598296382201854E-06   2.697536460158513E-06   2.800565732586352E-06
   2.907528800872931E-06   3.018575779581191E-06   3.133862506324871E-06
   3.253550759610357E-06   3.377808484950695E-06   3.506810029559519E-06
   3.640736385953195E-06   3.779775444794282E-06   3.924122257328969E-06
   4.073979307774288E-06   4.229556796038900E-06   4.391072931159991E-06
   4.558754235864286E-06   4.732835862670743E-06   4.913561921970774E-06
   5.101185822537364E-06   5.295970624929025E-06   5.498189408276078E-06
   5.708125650952737E-06   5.926073625654666E-06   6.152338809426962E-06
   6.387238309201628E-06   6.631101303428866E-06   6.884269500404463E-06
   7.147097613921970E-06   7.419953856897135E-06   7.703220453642018E-06
   7.997294171482055E-06   8.302586872445517E-06   8.619526085774724E-06
   8.948555602037166E-06   9.290136089645911E-06   9.644745734624671E-06
   1.001288090448770E-05   1.039505683713308E-05   1.079180835568383E-05
   1.120369061024189E-05   1.163127984756020E-05   1.207517420966965E-05
   1.253599456254193E-05   1.301438535589876E-05   1.351101551533066E-05
   1.402657936792265E-05   1.456179760262725E-05   1.511741826667598E-05
   1.569421779936269E-05   1.629300210458232E-05   1.691460766355424E-05
   1.755990268922330E-05   1.822978832386350E-05   1.892519988149310E-05
   1.964710813673550E-05   2.039652066184962E-05   2.117448321369011E-05
   2.198208117243620E-05   2.282044103398840E-05   2.369073195799682E-05
   2.459416737355940E-05   2.553200664469978E-05   2.650555679780353E-05
   2.751617431327901E-05   2.856526698377423E-05   2.965429584137944E-05
   3.078477715631365E-05   3.195828450969675E-05   3.317645094308149E-05
   3.444097118753150E-05   3.575360397511423E-05   3.711617443577731E-05
   3.853057658269404E-05   3.999877588924171E-05   4.152281196091821E-05
   4.310480130558497E-05   4.474694020555920E-05   4.645150769518883E-05
   4.822086864766718E-05   5.005747697497087E-05   5.196387894493763E-05
   5.394271661962681E-05   5.599673141925192E-05   5.812876781610976E-05
   6.034177716307649E-05   6.263882166139415E-05   6.502307847262422E-05
   6.749784397979579E-05   7.006653820294716E-05   7.273270937442164E-05
   7.550003867945075E-05   7.837234516772451E-05   8.135359084184590E-05
   8.444788592872952E-05   8.765949434021156E-05   9.099283932931105E-05
   9.445250934880185E-05   9.804326411893714E-05   1.017700409113850E-04
   1.056379610566406E-04   1.096523366823919E-04   1.138186776905440E-04
   1.181426989808188E-04   1.226303279290817E-04   1.272877121287754E-04
   1.321212274040740E-04   1.371374861036121E-04   1.423433456838843E-04
   1.477459175916546E-04   1.533525764549604E-04   1.591709695925603E-04
   1.652090268519023E-04   1.714749707859783E-04   1.779773271796435E-04
   1.847249359362971E-04   1.917269623360042E-04   1.989929086764778E-04
   2.065326263085253E-04   2.143563280778843E-04   2.224746011855704E-04
   2.308984204791688E-04   2.396391621876979E-04   2.487086181129719E-04
   2.581190102905823E-04   2.678830061338791E-04   2.780137340745601E-04
   2.885247997136804E-04   2.994303024971148E-04   3.107448529296908E-04
   3.224835903424112E-04   3.346622012273264E-04   3.472969381548013E-04
   3.604046392880154E-04   3.740027485096907E-04   3.881093361760967E-04
   4.027431205134419E-04   4.179234896718406E-04   4.336705244519865E-04
   4.500050217196766E-04   4.669485185232415E-04   4.845233169288341E-04
   5.027525095883648E-04   5.216600060546836E-04   5.412705598583267E-04
   5.616097963598641E-04   5.827042413914622E-04   6.045813507008649E-04
   6.272695402104688E-04   6.507982171035456E-04   6.751978117490159E-04
   7.004998104753376E-04   7.267367892032886E-04   7.539424479463248E-04
   7.821516461861869E-04   8.114004391301336E-04   8.417261148548493E-04
   8.731672323405739E-04   9.057636603973317E-04   9.395566174832926E-04
   9.745887124133707E-04   1.010903985953861E-03   1.048547953296659E-03
   1.087567647403908E-03   1.128011663211105E-03   1.169930202673681E-03
   1.213375120638597E-03   1.258399971519074E-03   1.305060056746472E-03
   1.353412472969230E-03   1.403516160964210E-03   1.455431955220778E-03
   1.509222634152832E-03   1.564952970888135E-03   1.622689784578310E-03
   1.682501992166266E-03   1.744460660540737E-03   1.808639059000203E-03
   1.875112711940280E-03   1.943959451670109E-03   2.015259471254067E-03
   2.089095377265206E-03   2.165552242326465E-03   2.244717657304424E-03
   2.326681783008441E-03   2.411537401235465E-03   2.499379964987123E-03
   2.590307647671637E-03   2.684421391087646E-03   2.781824951971064E-03
   2.882624946868961E-03   2.986930895086182E-03   3.094855259431593E-03
   3.206513484470148E-03   3.322024031965875E-03   3.441508413178080E-03
   3.565091217649165E-03   3.692900138097511E-03   3.825065991002068E-03
   3.961722732437655E-03   4.103007468690527E-03   4.249060461152914E-03
   4.400025124963095E-03   4.556048020823499E-03   4.717278839393917E-03
   4.883870377619866E-03   5.055978506317031E-03   5.233762128292721E-03
   5.417383126242590E-03   5.607006299617100E-03   5.802799289606654E-03
   6.004932491346368E-03   6.213578952392888E-03   6.428914256474151E-03
   6.651116391460606E-03   6.880365600452064E-03   7.116844214818178E-03
   7.360736467973467E-03   7.612228288608459E-03   7.871507072038412E-03
   8.138761428269624E-03   8.414180905320402E-03   8.697955686270881E-03
   8.990276258451118E-03   9.291333053112593E-03   9.601316053863676E-03
   9.920414372084338E-03   1.024881578747232E-02   1.058670625180888E-02
   1.093426935397080E-02   1.129168574415590E-02   1.165913251523047E-02
   1.203678253905461E-02   1.242480375558883E-02   1.282335841254071E-02
   1.323260225326896E-02   1.365268365062763E-02   1.408374268440737E-02
   1.452591016001058E-02   1.497930656598958E-02   1.544404096807864E-02
   1.592020983736492E-02   1.640789581027327E-02   1.690716637808268E-02
   1.741807250375527E-02   1.794064716393964E-02   1.847490381411328E-02
   1.902083477495654E-02   1.957840953820301E-02   2.014757299039384E-02
   2.072824355317752E-02   2.132031123904417E-02   2.192363562167092E-02
   2.253804372038041E-02   2.316332779858627E-02   2.379924307651931E-02
   2.444550535899715E-02   2.510178857952858E-02   2.576772226262817E-02
   2.644288890686704E-02   2.712682129190372E-02   2.781899971352806E-02
   2.851884915161987E-02   2.922573637687035E-02   2.993896700314984E-02
   3.065778249352875E-02   3.138135712917688E-02   3.210879495168476E-02
   3.283912669076820E-02   3.357130669084457E-02   3.430420985160307E-02
   3.503662859943760E-02   3.576726990847273E-02   3.649475239188742E-02
   3.721760348633342E-02   3.793425675445174E-02   3.864304933280973E-02
   3.934221955501205E-02   4.002990478227261E-02   4.070413947636884E-02
   4.136285355262306E-02   4.200387105335682E-02   4.262490918513282E-02
   4.322357776601326E-02   4.379737913200915E-02   4.434370855484368E-02
   4.485985522608095E-02   4.534300386554585E-02   4.579023701474408E-02
   4.619853807864518E-02   4.656479518166629E-02   4.688580590593885E-02
   4.715828298189694E-02   4.737886100282659E-02   4.754410423619104E-02
   4.765051560521610E-02   4.769454691429714E-02   4.767261039118074E-02
   4.758109161747641E-02   4.741636391675962E-02   4.717480426621873E-02
   4.685281079335134E-02   4.644682191349842E-02   4.595333715688366E-02
   4.536893972515416E-02   4.469032080705366E-02   4.391430567065491E-02
   4.303788153537582E-02   4.205822721067004E-02   4.097274446966035E-02
   3.977909110494266E-02   3.847521559021282E-02   3.705939324512405E-02
   3.553026377181456E-02   3.388686999975539E-02   3.212869764094598E-02
   3.025571582003930E-02   2.826841810373384E-02   2.616786371088163E-02
   2.395571853935173E-02   2.163429559803359E-02   1.920659438279795E-02
   1.667633868413655E-02   1.404801226217219E-02   1.132689177234817E-02
   8.519076273192205E-03   5.631512597020230E-03   2.672015816327058E-03
  -3.507160057942271E-04  -3.427093632228279E-03  -6.546635919136633E-03
  -9.697977441993952E-03  -1.286888540235877E-02  -1.604628673886482E-02
  -1.921630635272170E-02  -2.236431732764811E-02  -2.547500397406861E-02
  -2.853243845500140E-02  -3.152017165353385E-02  -3.442133881652909E-02
  -3.721878035350557E-02  -3.989517798099282E-02  -4.243320617886857E-02
  -4.481569866421355E-02  -4.702582928871672E-02  -4.904730642673383E-02
  -5.086457954269635E-02  -5.246305620962666E-02  -5.382932739703285E-02
  -5.495139835991011E-02  -5.581892194592730E-02  -5.642343060194686E-02
  -5.675856281267321E-02  -5.682027915452146E-02  -5.660706261033670E-02
  -5.612009728154296E-02  -5.536341917264700E-02  -5.434403233056657E-02
  -5.307198332267284E-02  -5.156038686013911E-02  -4.982539534714472E-02
  -4.788610529383629E-02  -4.576439390547755E-02  -4.348467978666846E-02
  -4.107360261253493E-02  -3.855961785184838E-02  -3.597250421086097E-02
  -3.334278342743231E-02  -3.070105440250061E-02  -2.807724642077896E-02
  -2.549979938387834E-02  -2.299478254145945E-02  -2.058496712635220E-02
  -1.828887252392470E-02  -1.611981005604369E-02  -1.408495303022458E-02
  -1.218446625923385E-02  -1.041073262710425E-02  -8.752515435310859E-03
  -7.211535777746692E-03  -5.792493194880510E-03  -4.498858109438175E-03
  -3.332822994813633E-03  -2.295266474146462E-03  -1.385731746359586E-03
  -6.024206818147082E-04   5.779514472781244E-05   5.993453130549442E-04
   1.027912257049790E-03   1.350362895558677E-03   1.574659449817828E-03
   1.709748889231588E-03   1.765430655002898E-03   1.752202539141212E-03
   1.681084843417668E-03   1.563423207328496E-03   1.410670779049217E-03
   1.234154529976106E-03   1.044830124162011E-03   8.530012094303263E-04
   6.680123837741192E-04   4.979672821056047E-04   3.494112653218417E-04
   2.270163469119124E-04   1.332610478640417E-04   6.811137929807476E-05
   2.870730114157283E-05   9.059876519779131E-06   1.256847885322543E-06
   0.000000000000000E+00   0.000000000000000E+00   0.000000000000000E+00
   0.000000000000000E+00   0.000000000000000E+00   0.000000000000000E+00
   0.000000000000000E+00   0.000000000000000E+00   0.000000000000000E+00
   0.000000000000000E+00   0.000000000000000E+00   0.000000000000000E+00
   0.000000000000000E+00   0.000000000000000E+00   0.000000000000000E+00
   0.000000000000000E+00   0.000000000000000E+00   0.000000000000000E+00
   0.000000000000000E+00   0.000000000000000E+00   0.000000000000000E+00
   0.000000000000000E+00   0.000000000000000E+00   0.000000000000000E+00
   0.000000000000000E+00   0.000000000000000E+00   0.000000000000000E+00
   0.000000000000000E+00   0.000000000000000E+00   0.000000000000000E+00
   0.000000000000000E+00   0.000000000000000E+00   0.000000000000000E+00
   0.000000000000000E+00   0.000000000000000E+00   0.000000000000000E+00
   0.000000000000000E+00   0.000000000000000E+00   0.000000000000000E+00
   0.000000000000000E+00   0.000000000000000E+00   0.000000000000000E+00
   0.000000000000000E+00   0.000000000000000E+00   0.000000000000000E+00
   0.000000000000000E+00   0.000000000000000E+00   0.000000000000000E+00
   0.000000000000000E+00   0.000000000000000E+00   0.000000000000000E+00
   0.000000000000000E+00   0.000000000000000E+00   0.000000000000000E+00
   0.000000000000000E+00   0.000000000000000E+00   0.000000000000000E+00
   0.000000000000000E+00   0.000000000000000E+00   0.000000000000000E+00
   0.000000000000000E+00   0.000000000000000E+00   0.000000000000000E+00
   0.000000000000000E+00   0.000000000000000E+00   0.000000000000000E+00
   0.000000000000000E+00   0.000000000000000E+00   0.000000000000000E+00
   0.000000000000000E+00   0.000000000000000E+00   0.000000000000000E+00
   0.000000000000000E+00   0.000000000000000E+00   0.000000000000000E+00
   0.000000000000000E+00   0.000000000000000E+00   0.000000000000000E+00
   0.000000000000000E+00   0.000000000000000E+00   0.000000000000000E+00
   0.000000000000000E+00   0.000000000000000E+00   0.000000000000000E+00
   0.000000000000000E+00   0.000000000000000E+00   0.000000000000000E+00
   0.000000000000000E+00   0.000000000000000E+00   0.000000000000000E+00
   0.000000000000000E+00   0.000000000000000E+00   0.000000000000000E+00
   0.000000000000000E+00   0.000000000000000E+00   0.000000000000000E+00
   0.000000000000000E+00   0.000000000000000E+00   0.000000000000000E+00
   0.000000000000000E+00   0.000000000000000E+00   0.000000000000000E+00
   0.000000000000000E+00   0.000000000000000E+00   0.000000000000000E+00
   0.000000000000000E+00   0.000000000000000E+00   0.000000000000000E+00
   0.000000000000000E+00   0.000000000000000E+00   0.000000000000000E+00
   0.000000000000000E+00   0.000000000000000E+00   0.000000000000000E+00
   0.000000000000000E+00   0.000000000000000E+00   0.000000000000000E+00
   0.000000000000000E+00   0.000000000000000E+00   0.000000000000000E+00
   0.000000000000000E+00   0.000000000000000E+00   0.000000000000000E+00
   0.000000000000000E+00   0.000000000000000E+00   0.000000000000000E+00
   0.000000000000000E+00   0.000000000000000E+00   0.000000000000000E+00
   0.000000000000000E+00   0.000000000000000E+00   0.000000000000000E+00
   0.000000000000000E+00   0.000000000000000E+00   0.000000000000000E+00
   0.000000000000000E+00   0.000000000000000E+00   0.000000000000000E+00
   0.000000000000000E+00   0.000000000000000E+00   0.000000000000000E+00
   0.000000000000000E+00   0.000000000000000E+00   0.000000000000000E+00
   0.000000000000000E+00   0.000000000000000E+00   0.000000000000000E+00
   0.000000000000000E+00   0.000000000000000E+00   0.000000000000000E+00
   0.000000000000000E+00   0.000000000000000E+00   0.000000000000000E+00
   0.000000000000000E+00   0.000000000000000E+00   0.000000000000000E+00
   0.000000000000000E+00   0.000000000000000E+00   0.000000000000000E+00
   0.000000000000000E+00   0.000000000000000E+00   0.000000000000000E+00
   0.000000000000000E+00   0.000000000000000E+00   0.000000000000000E+00
   0.000000000000000E+00   0.000000000000000E+00   0.000000000000000E+00
   0.000000000000000E+00   0.000000000000000E+00   0.000000000000000E+00
   0.000000000000000E+00   0.000000000000000E+00   0.000000000000000E+00
   0.000000000000000E+00   0.000000000000000E+00   0.000000000000000E+00
   0.000000000000000E+00   0.000000000000000E+00   0.000000000000000E+00
   0.000000000000000E+00   0.000000000000000E+00   0.000000000000000E+00
   0.000000000000000E+00   0.000000000000000E+00   0.000000000000000E+00
   0.000000000000000E+00   0.000000000000000E+00   0.000000000000000E+00
   0.000000000000000E+00   0.000000000000000E+00   0.000000000000000E+00
   0.000000000000000E+00   0.000000000000000E+00   0.000000000000000E+00
   0.000000000000000E+00   0.000000000000000E+00   0.000000000000000E+00
   0.000000000000000E+00   0.000000000000000E+00   0.000000000000000E+00
   0.000000000000000E+00   0.000000000000000E+00   0.000000000000000E+00
   0.000000000000000E+00   0.000000000000000E+00   0.000000000000000E+00
   0.000000000000000E+00   0.000000000000000E+00   0.000000000000000E+00
   0.000000000000000E+00   0.000000000000000E+00   0.000000000000000E+00
   0.000000000000000E+00   0.000000000000000E+00   0.000000000000000E+00
   0.000000000000000E+00   0.000000000000000E+00   0.000000000000000E+00
   0.000000000000000E+00   0.000000000000000E+00   0.000000000000000E+00
   0.000000000000000E+00   0.000000000000000E+00   0.000000000000000E+00
   0.000000000000000E+00   0.000000000000000E+00   0.000000000000000E+00
   0.000000000000000E+00   0.000000000000000E+00   0.000000000000000E+00
   0.000000000000000E+00   0.000000000000000E+00   0.000000000000000E+00
   0.000000000000000E+00   0.000000000000000E+00   0.000000000000000E+00
   0.000000000000000E+00   0.000000000000000E+00   0.000000000000000E+00
   0.000000000000000E+00   0.000000000000000E+00   0.000000000000000E+00
   0.000000000000000E+00   0.000000000000000E+00   0.000000000000000E+00
   0.000000000000000E+00   0.000000000000000E+00   0.000000000000000E+00
   0.000000000000000E+00   0.000000000000000E+00   0.000000000000000E+00
   0.000000000000000E+00   0.000000000000000E+00   0.000000000000000E+00
   0.000000000000000E+00   0.000000000000000E+00   0.000000000000000E+00
   0.000000000000000E+00   0.000000000000000E+00   0.000000000000000E+00
   0.000000000000000E+00   0.000000000000000E+00   0.000000000000000E+00
   0.000000000000000E+00   0.000000000000000E+00   0.000000000000000E+00
   0.000000000000000E+00   0.000000000000000E+00   0.000000000000000E+00
   0.000000000000000E+00   0.000000000000000E+00   0.000000000000000E+00
   0.000000000000000E+00   0.000000000000000E+00   0.000000000000000E+00
   0.000000000000000E+00   0.000000000000000E+00   0.000000000000000E+00
   0.000000000000000E+00   0.000000000000000E+00   0.000000000000000E+00
   0.000000000000000E+00   0.000000000000000E+00   0.000000000000000E+00
   0.000000000000000E+00   0.000000000000000E+00   0.000000000000000E+00
   0.000000000000000E+00   0.000000000000000E+00   0.000000000000000E+00
   0.000000000000000E+00   0.000000000000000E+00   0.000000000000000E+00
   0.000000000000000E+00   0.000000000000000E+00   0.000000000000000E+00
   0.000000000000000E+00   0.000000000000000E+00   0.000000000000000E+00
   0.000000000000000E+00   0.000000000000000E+00   0.000000000000000E+00
   0.000000000000000E+00   0.000000000000000E+00   0.000000000000000E+00
   0.000000000000000E+00   0.000000000000000E+00   0.000000000000000E+00
   0.000000000000000E+00   0.000000000000000E+00   0.000000000000000E+00
   0.000000000000000E+00   0.000000000000000E+00   0.000000000000000E+00
   0.000000000000000E+00   0.000000000000000E+00   0.000000000000000E+00
   0.000000000000000E+00   0.000000000000000E+00   0.000000000000000E+00
   0.000000000000000E+00   0.000000000000000E+00   0.000000000000000E+00
   0.000000000000000E+00   0.000000000000000E+00   0.000000000000000E+00
   0.000000000000000E+00   0.000000000000000E+00   0.000000000000000E+00
   0.000000000000000E+00   0.000000000000000E+00   0.000000000000000E+00
   0.000000000000000E+00   0.000000000000000E+00   0.000000000000000E+00
   0.000000000000000E+00   0.000000000000000E+00   0.000000000000000E+00
   0.000000000000000E+00   0.000000000000000E+00   0.000000000000000E+00
   0.000000000000000E+00   0.000000000000000E+00   0.000000000000000E+00
      </PP_QIJL.1.3.1>
      <PP_QIJL.1.4.1 first_index="1" second_index="4" composite_index="7" angular_momentum="1" size="1095">
   4.132265686250230E-12   4.290167796250282E-12   4.454103660291748E-12
   4.624303840106769E-12   4.801007707647912E-12   4.984463781743974E-12
   5.174930077620148E-12   5.372674469774037E-12   5.577975068717789E-12
   5.791120612116428E-12   6.012410870872149E-12   6.242157070726033E-12
   6.480682329969932E-12   6.728322113884147E-12   6.985424706540165E-12
   7.252351700631681E-12   7.529478506023224E-12   7.817194877731293E-12
   8.115905464080689E-12   8.426030375807056E-12   8.748005776905729E-12
   9.082284498058235E-12   9.429336673498925E-12   9.789650402217514E-12
   1.016373243442753E-11   1.055210888426578E-11   1.095532596972578E-11
   1.137395078086520E-11   1.180857207736805E-11   1.225980111658341E-11
   1.272827251320477E-11   1.321464513179966E-11   1.371960301344441E-11
   1.424385633776733E-11   1.478814242175364E-11   1.535322675671625E-11
   1.593990408489145E-11   1.654899951717329E-11   1.718136969355865E-11
   1.783790398793529E-11   1.851952575890674E-11   1.922719364841395E-11
   1.996190292997958E-11   2.072468690847111E-11   2.151661837335192E-11
   2.233881110746315E-11   2.319242145345953E-11   2.407864994010141E-11
   2.499874297069038E-11   2.595399457602346E-11   2.694574823433029E-11
   2.797539876075417E-11   2.904439426903332E-11   3.015423820814148E-11
   3.130649147675291E-11   3.250277461850396E-11   3.374477010114050E-11
   3.503422468275540E-11   3.637295186844406E-11   3.776283446083393E-11
   3.920582720807321E-11   4.070395955300507E-11   4.225933848739237E-11
   4.387415151520709E-11   4.555066972915345E-11   4.729125100474887E-11
   4.909834331645791E-11   5.097448818054084E-11   5.292232422945956E-11
   5.494459092286875E-11   5.704413240040886E-11   5.922390148172276E-11
   6.148696381931912E-11   6.383650221012389E-11   6.627582107178482E-11
   6.880835109002117E-11   7.143765404355868E-11   7.416742781343261E-11
   7.700151158370493E-11   7.994389124091044E-11   8.299870497982324E-11
   8.617024912343081E-11   8.946298416529810E-11   9.288154104282040E-11
   9.643072765018876E-11   1.001155356002245E-10   1.039411472445965E-10
   1.079129429622916E-10   1.120365087265894E-10   1.163176439611840E-10
   1.207623696964993E-10   1.253769370376718E-10   1.301678359561077E-10
   1.351418044169788E-10   1.403058378554967E-10   1.456671990152858E-10
   1.512334281627005E-10   1.570123536914433E-10   1.630121031324042E-10
   1.692411145842029E-10   1.757081485805045E-10   1.824223004108096E-10
   1.893930129120350E-10   1.966300897488812E-10   2.041437092016640E-10
   2.119444384809935E-10   2.200432485894423E-10   2.284515297510970E-10
   2.371811074306936E-10   2.462442589648691E-10   2.556537308289107E-10
   2.654227565632948E-10   2.755650753852212E-10   2.860949515113188E-10
   2.970271942186982E-10   3.083771786725576E-10   3.201608675496436E-10
   3.323948334879678E-10   3.450962823943549E-10   3.582830776426028E-10
   3.719737651962761E-10   3.861875996914782E-10   4.009445715162704E-10
   4.162654349248279E-10   4.321717372258713E-10   4.486858490864100E-10
   4.658309959934326E-10   4.836312909177767E-10   5.021117682261166E-10
   5.212984188887671E-10   5.412182270327972E-10   5.618992078918868E-10
   5.833704472062716E-10   6.056621421281966E-10   6.288056436904074E-10
   6.528335008973790E-10   6.777795065013235E-10   7.036787445273228E-10
   7.305676396144312E-10   7.584840082421433E-10   7.874671119142402E-10
   8.175577123748395E-10   8.487981289342769E-10   8.812322979854360E-10
   9.149058347942399E-10   9.498660976511627E-10   9.861622544740209E-10
   1.023845351955673E-09   1.062968387353870E-09   1.103586383024238E-09
   1.145756463801156E-09   1.189537937335397E-09   1.234992377501476E-09
   1.282183710991999E-09   1.331178307220805E-09   1.382045071661275E-09
   1.434855542751134E-09   1.489683992499956E-09   1.546607530940872E-09
   1.605706214573371E-09   1.667063158949648E-09   1.730764655562872E-09
   1.796900293201699E-09   1.865563083941683E-09   1.936849593950803E-09
   2.010860079292907E-09   2.087698626920252E-09   2.167473301053155E-09
   2.250296295152767E-09   2.336284089700625E-09   2.425557616006723E-09
   2.518242426276684E-09   2.614468870176877E-09   2.714372278145992E-09
   2.818093151710720E-09   2.925777361073070E-09   3.037576350247404E-09
   3.153647350035283E-09   3.274153599137875E-09   3.399264573716715E-09
   3.529156225725475E-09   3.664011230348173E-09   3.804019242891314E-09
   3.949377165491517E-09   4.100289424013477E-09   4.256968255527440E-09
   4.419634006770824E-09   4.588515444013045E-09   4.763850074759678E-09
   4.945884481748106E-09   5.134874669704028E-09   5.331086425346880E-09
   5.534795691149635E-09   5.746288953379050E-09   5.965863644961636E-09
   6.193828563741597E-09   6.430504306719285E-09   6.676223720879975E-09
   6.931332371247297E-09   7.196189026819221E-09   7.471166165069325E-09
   7.756650495723454E-09   8.053043504547066E-09   8.360762017908539E-09
   8.680238788911764E-09   9.011923105921682E-09   9.356281424339073E-09
   9.713798022511544E-09   1.008497568270371E-08   1.047033639808342E-08
   1.087042210671739E-08   1.128579545360915E-08   1.171704058184899E-08
   1.216476395398910E-08   1.262959520479808E-08   1.311218802659279E-08
   1.361322108839338E-08   1.413339899019166E-08   1.467345325367535E-08
   1.523414335080031E-08   1.581625777165558E-08   1.642061513312380E-08
   1.704806532989300E-08   1.769949072943903E-08   1.837580741265756E-08
   1.907796646188814E-08   1.980695529814266E-08   2.056379906941457E-08
   2.134956209202209E-08   2.216534934700993E-08   2.301230803371138E-08
   2.389162918265607E-08   2.480454933008696E-08   2.575235225644143E-08
   2.673637079123883E-08   2.775798868690883E-08   2.881864256419627E-08
   2.991982393187234E-08   3.106308128359212E-08   3.225002227484372E-08
   3.348231598304557E-08   3.476169525397058E-08   3.608995913778879E-08
   3.746897541815416E-08   3.890068323788636E-08   4.038709582493546E-08
   4.193030332245967E-08   4.353247572698948E-08   4.519586593880612E-08
   4.692281292881832E-08   4.871574502638343E-08   5.057718333269280E-08
   5.250974526451175E-08   5.451614823325309E-08   5.659921346454878E-08
   5.876186996368274E-08   6.100715863245407E-08   6.333823654324862E-08
   6.575838137632152E-08   6.827099602651924E-08   7.087961338590728E-08
   7.358790130901950E-08   7.639966776769588E-08   7.931886620274648E-08
   8.234960107995242E-08   8.549613365819961E-08   8.876288797784403E-08
   9.215445707770802E-08   9.567560944943486E-08   9.933129573825691E-08
   1.031266556995778E-07   1.070670254211320E-07   1.111579448208500E-07
   1.154051654309500E-07   1.198146584791753E-07   1.243926232785091E-07
   1.291454959371393E-07   1.340799584008816E-07   1.392029478407484E-07
   1.445216663988234E-07   1.500435913061059E-07   1.557764853865148E-07
   1.617284079617726E-07   1.679077261724608E-07   1.743231267311128E-07
   1.809836281238161E-07   1.878985932774276E-07   1.950777427101472E-07
   2.025311681838821E-07   2.102693468775260E-07   2.183031561010076E-07
   2.266438885707265E-07   2.353032682677606E-07   2.442934669010696E-07
   2.536271209987227E-07   2.633173496511189E-07   2.733777729310485E-07
   2.838225310162297E-07   2.946663040413616E-07   3.059243327073154E-07
   3.176124396761681E-07   3.297470517822005E-07   3.423452230902238E-07
   3.554246588325260E-07   3.690037402591165E-07   3.831015504352920E-07
   3.977379010225425E-07   4.129333600805581E-07   4.287092809294491E-07
   4.450878321115768E-07   4.620920284957472E-07   4.797457635669954E-07
   4.980738429468597E-07   5.171020191909044E-07   5.368570279128493E-07
   5.573666252844447E-07   5.786596269647082E-07   6.007659485120333E-07
   6.237166473357696E-07   6.475439662461912E-07   6.722813786628392E-07
   6.979636355449689E-07   7.246268141092078E-07   7.523083684022715E-07
   7.810471817994677E-07   8.108836215020843E-07   8.418595951090752E-07
   8.740186093425523E-07   9.074058310084825E-07   9.420681502776605E-07
   9.780542463738215E-07   1.015414655762945E-06   1.054201842935108E-06
   1.094470273880604E-06   1.136276492359757E-06   1.179679199074544E-06
   1.224739333850099E-06   1.271520160941934E-06   1.320087357585917E-06
   1.370509105915028E-06   1.422856188369655E-06   1.477202086733043E-06
   1.533623084931728E-06   1.592198375740926E-06   1.653010171542247E-06
   1.716143819290870E-06   1.781687919846376E-06   1.849734451836696E-06
   1.920378900222646E-06   1.993720389743979E-06   2.069861823429626E-06
   2.148910026363480E-06   2.230975894904125E-06   2.316174551566110E-06
   2.404625505773535E-06   2.496452820709884E-06   2.591785286491876E-06
   2.690756599909165E-06   2.793505550972235E-06   2.900176216530676E-06
   3.010918161222744E-06   3.125886646036319E-06   3.245242844765728E-06
   3.369154068661270E-06   3.497793999579765E-06   3.631342931957609E-06
   3.769988023932658E-06   3.913923557965413E-06   4.063351211309477E-06
   4.218480336705740E-06   4.379528253680158E-06   4.546720550844561E-06
   4.720291399613297E-06   4.900483879758983E-06   5.087550317256311E-06
   5.281752634868985E-06   5.483362715958029E-06   5.692662782004666E-06
   5.909945784360648E-06   6.135515810755576E-06   6.369688507113069E-06
   6.612791515245279E-06   6.865164927016997E-06   7.127161755592303E-06
   7.399148424400086E-06   7.681505274475646E-06   7.974627090860769E-06
   8.278923648771038E-06   8.594820280261006E-06   8.922758462149103E-06
   9.263196425986239E-06   9.616609790887675E-06   9.983492220068594E-06
   1.036435610196131E-05   1.075973325682021E-05   1.117017566975328E-05
   1.159625625115491E-05   1.203856962554398E-05   1.249773294985606E-05
   1.297438676226635E-05   1.346919586266598E-05   1.398285022594716E-05
   1.451606594930441E-05   1.506958623478286E-05   1.564418240837566E-05
   1.624065497698669E-05   1.685983472464881E-05   1.750258384941927E-05
   1.816979714242911E-05   1.886240321061621E-05   1.958136574472295E-05
   2.032768483419568E-05   2.110239833067329E-05   2.190658326182500E-05
   2.274135729734144E-05   2.360788026895227E-05   2.450735574641401E-05
   2.544103267146231E-05   2.641020705180579E-05   2.741622371729912E-05
   2.846047814051069E-05   2.954441832396836E-05   3.066954675644906E-05
   3.183742244075378E-05   3.304966299548994E-05   3.430794683346623E-05
   3.561401541939122E-05   3.696967560965668E-05   3.837680207707072E-05
   3.983733982350422E-05   4.135330678351033E-05   4.292679652206173E-05
   4.455998102967346E-05   4.625511361825623E-05   4.801453192116600E-05
   4.984066100102289E-05   5.173601656897687E-05   5.370320831920834E-05
   5.574494338257852E-05   5.786402990345469E-05   6.006338074385064E-05
   6.234601731915979E-05   6.471507356986931E-05   6.717380007378205E-05
   6.972556830339757E-05   7.237387503323587E-05   7.512234690203199E-05
   7.797474513484153E-05   8.093497043027662E-05   8.400706801818837E-05
   8.719523289328539E-05   9.050381523031245E-05   9.393732598655456E-05
   9.750044269758464E-05   1.011980154723223E-04   1.050350731936090E-04
   1.090168299306743E-04   1.131486915699895E-04   1.174362626711885E-04
   1.218853535548497E-04   1.265019876291079E-04   1.312924089622023E-04
   1.362630901082048E-04   1.414207401933285E-04   1.467723132703521E-04
   1.523250169488255E-04   1.580863213088687E-04   1.640639681064856E-04
   1.702659802784611E-04   1.767006717549999E-04   1.833766575883976E-04
   1.903028644061176E-04   1.974885411967462E-04   2.049432704373866E-04
   2.126769795711069E-04   2.206999528431248E-04   2.290228435044529E-04
   2.376566863917453E-04   2.466129108921106E-04   2.559033543016369E-04
   2.655402755863368E-04   2.755363695541851E-04   2.859047814468156E-04
   2.966591219593731E-04   3.078134826968288E-04   3.193824520749579E-04
   3.313811316739199E-04   3.438251530521652E-04   3.567306950281170E-04
   3.701145014367108E-04   3.839938993675427E-04   3.983868178909068E-04
   4.133118072775301E-04   4.287880587172857E-04   4.448354245415193E-04
   4.614744389529486E-04   4.787263392663714E-04   4.966130876625099E-04
   5.151573934564737E-04   5.343827358812331E-04   5.543133873854197E-04
   5.749744374435330E-04   5.963918168752650E-04   6.185923226692630E-04
   6.416036433049626E-04   6.654543845644801E-04   6.901740958246323E-04
   7.157932968170934E-04   7.423435048425675E-04   7.698572624223984E-04
   7.983681653685039E-04   8.279108912497509E-04   8.585212282298702E-04
   8.902361042488400E-04   9.230936165161585E-04   9.571330612807652E-04
   9.923949638383539E-04   1.028921108732545E-03   1.066754570101859E-03
   1.105939742119497E-03   1.146522369467712E-03   1.188549577782986E-03
   1.232069904002237E-03   1.277133326533951E-03   1.323791295171329E-03
   1.372096760657318E-03   1.422104203803763E-03   1.473869664058648E-03
   1.527450767406857E-03   1.582906753480543E-03   1.640298501745490E-03
   1.699688556619516E-03   1.761141151367872E-03   1.824722230609168E-03
   1.890499471252891E-03   1.958542301676713E-03   2.028921918938051E-03
   2.101711303799848E-03   2.176985233335374E-03   2.254820290860718E-03
   2.335294872926780E-03   2.418489193084840E-03   2.504485282120976E-03
   2.593366984435258E-03   2.685219950220867E-03   2.780131623076916E-03
   2.878191222666246E-03   2.979489722005804E-03   3.084119818952873E-03
   3.192175901424641E-03   3.303754005861954E-03   3.418951768420464E-03
   3.537868368343354E-03   3.660604462940207E-03   3.787262113565400E-03
   3.917944701957526E-03   4.052756836268329E-03   4.191804246075470E-03
   4.335193665638716E-03   4.483032704623011E-03   4.635429705475287E-03
   4.792493586604436E-03   4.954333670475411E-03   5.121059495690155E-03
   5.292780612088377E-03   5.469606357862011E-03   5.651645617637511E-03
   5.839006560440312E-03   6.031796356416931E-03   6.230120871150840E-03
   6.434084336370535E-03   6.643788995811166E-03   6.859334724955290E-03
   7.080818623345017E-03   7.308334578125728E-03   7.541972797452919E-03
   7.781819312368060E-03   8.027955445726917E-03   8.280457246746864E-03
   8.539394889726397E-03   8.804832035483594E-03   9.076825154059946E-03
   9.355422807242778E-03   9.640664889475646E-03   9.932581825750238E-03
   1.023119372510936E-02   1.053650948843731E-02   1.084852586927410E-02
   1.116722648646458E-02   1.149258078754365E-02   1.182454296186626E-02
   1.216305080261791E-02   1.250802451698838E-02   1.285936548396239E-02
   1.321695495937511E-02   1.358065272810262E-02   1.395029570350813E-02
   1.432569647454649E-02   1.470664180124581E-02   1.509289105963650E-02
   1.548417463758880E-02   1.588019228345246E-02   1.628061140986757E-02
   1.668506535563997E-02   1.709315160914643E-02   1.750442999736077E-02
   1.791842084527284E-02   1.833460311121032E-02   1.875241250437375E-02
   1.917123959175667E-02   1.959042790255172E-02   2.000927203913922E-02
   2.042701580481963E-02   2.084285035958913E-02   2.125591241646467E-02
   2.166528249214768E-02   2.206998322716908E-02   2.246897779208432E-02
   2.286116839778507E-02   2.324539492955708E-02   2.362043372614486E-02
   2.398499652677129E-02   2.433772961080354E-02   2.467721315654468E-02
   2.500196084745544E-02   2.531041975596003E-02   2.560097053685145E-02
   2.587192796416892E-02   2.612154184725439E-02   2.634799836348531E-02
   2.654942184690325E-02   2.672387707358417E-02   2.686937208609514E-02
   2.698386160072012E-02   2.706525104227379E-02   2.711140125221453E-02
   2.712013391636908E-02   2.708923775883780E-02   2.701647554850600E-02
   2.689959196397981E-02   2.673632236162954E-02   2.652440248968613E-02
   2.626157918892291E-02   2.594562211728172E-02   2.557433653178930E-02
   2.514557715616168E-02   2.465726315652511E-02   2.410739424059625E-02
   2.349406788736244E-02   2.281549770469882E-02   2.207003290134837E-02
   2.125617884719146E-02   2.037261868165711E-02   1.941823591439382E-02
   1.839213794487355E-02   1.729368040837690E-02   1.612249223477915E-02
   1.487850128371438E-02   1.356196039503290E-02   1.217347366706230E-02
   1.071402274708246E-02   9.184992888777027E-03   7.588198500402812E-03
   5.925907875227648E-03   4.200866762764112E-03   2.416320405788590E-03
   5.760336345550909E-04  -1.315691423483709E-03  -3.254000492158307E-03
  -5.233475657155744E-03  -7.248127770134930E-03  -9.291393301808558E-03
  -1.135613621875340E-02  -1.343465547227682E-02  -1.551869869412471E-02
  -1.759948269182430E-02  -1.966772132447950E-02  -2.171366131627593E-02
  -2.372712652817762E-02  -2.569757115650694E-02  -2.761414225860312E-02
  -2.946575191875511E-02  -3.124115926040622E-02  -3.292906238166875E-02
  -3.451820013897981E-02  -3.599746352715044E-02  -3.735601620220563E-02
  -3.858342346586022E-02  -3.966978877733755E-02  -4.060589658022370E-02
  -4.138335993072267E-02  -4.199477109145393E-02  -4.243385291532063E-02
  -4.269560849170489E-02  -4.277646616835730E-02  -4.267441670444467E-02
  -4.238913896247645E-02  -4.192211022021028E-02  -4.127669689089397E-02
  -4.045822119598085E-02  -3.947399915524626E-02  -3.833334516331538E-02
  -3.704753842890998E-02  -3.562974668490514E-02  -3.409490285589153E-02
  -3.245953081815926E-02  -3.074151702755737E-02  -2.895982564528524E-02
  -2.713415588009770E-02  -2.528454160435507E-02  -2.343089490290436E-02
  -2.159249708398902E-02  -1.978744281838904E-02  -1.803204546507491E-02
  -1.634021426530952E-02  -1.472281690469827E-02  -1.318704390045034E-02
  -1.173579429707798E-02  -1.036710515586785E-02  -9.076322243328605E-03
  -7.865440862350692E-03  -6.737915610097900E-03  -5.696370451486965E-03
  -4.742569436158084E-03  -3.877396510357178E-03  -3.100845270224639E-03
  -2.412019439792412E-03  -1.809144776688976E-03  -1.289593010806667E-03
  -8.499183055389881E-04  -4.859065978348731E-04  -1.926380223765678E-04
   3.543754281909450E-05   2.044119562406577E-04   3.208176645436711E-04
   3.915144858684938E-04   4.235651105257698E-04   4.241003444829250E-04
   4.001774448852413E-04   3.586346557478137E-04   3.059297308284359E-04
   2.479688944797553E-04   1.899549307349258E-04   1.362227235428004E-04
   9.008389340720013E-05   5.367784187926272E-05   2.783387429261541E-05
   1.194809615012726E-05   3.879253329286403E-06   5.533270654445310E-07
  -2.775557561562891E-17   0.000000000000000E+00   0.000000000000000E+00
   0.000000000000000E+00   0.000000000000000E+00   0.000000000000000E+00
   0.000000000000000E+00   0.000000000000000E+00   0.000000000000000E+00
   0.000000000000000E+00   0.000000000000000E+00   0.000000000000000E+00
   0.000000000000000E+00   0.000000000000000E+00   0.000000000000000E+00
   0.000000000000000E+00   0.000000000000000E+00   0.000000000000000E+00
   0.000000000000000E+00   0.000000000000000E+00   0.000000000000000E+00
   0.000000000000000E+00   0.000000000000000E+00   0.000000000000000E+00
   0.000000000000000E+00   0.000000000000000E+00   0.000000000000000E+00
   0.000000000000000E+00   0.000000000000000E+00   0.000000000000000E+00
   0.000000000000000E+00   0.000000000000000E+00   0.000000000000000E+00
   0.000000000000000E+00   0.000000000000000E+00   0.000000000000000E+00
   0.000000000000000E+00   0.000000000000000E+00   0.000000000000000E+00
   0.000000000000000E+00   0.000000000000000E+00   0.000000000000000E+00
   0.000000000000000E+00   0.000000000000000E+00   0.000000000000000E+00
   0.000000000000000E+00   0.000000000000000E+00   0.000000000000000E+00
   0.000000000000000E+00   0.000000000000000E+00   0.000000000000000E+00
   0.000000000000000E+00   0.000000000000000E+00   0.000000000000000E+00
   0.000000000000000E+00   0.000000000000000E+00   0.000000000000000E+00
   0.000000000000000E+00   0.000000000000000E+00   0.000000000000000E+00
   0.000000000000000E+00   0.000000000000000E+00   0.000000000000000E+00
   0.000000000000000E+00   0.000000000000000E+00   0.000000000000000E+00
   0.000000000000000E+00   0.000000000000000E+00   0.000000000000000E+00
   0.000000000000000E+00   0.000000000000000E+00   0.000000000000000E+00
   0.000000000000000E+00   0.000000000000000E+00   0.000000000000000E+00
   0.000000000000000E+00   0.000000000000000E+00   0.000000000000000E+00
   0.000000000000000E+00   0.000000000000000E+00   0.000000000000000E+00
   0.000000000000000E+00   0.000000000000000E+00   0.000000000000000E+00
   0.000000000000000E+00   0.000000000000000E+00   0.000000000000000E+00
   0.000000000000000E+00   0.000000000000000E+00   0.000000000000000E+00
   0.000000000000000E+00   0.000000000000000E+00   0.000000000000000E+00
   0.000000000000000E+00   0.000000000000000E+00   0.000000000000000E+00
   0.000000000000000E+00   0.000000000000000E+00   0.000000000000000E+00
   0.000000000000000E+00   0.000000000000000E+00   0.000000000000000E+00
   0.000000000000000E+00   0.000000000000000E+00   0.000000000000000E+00
   0.000000000000000E+00   0.000000000000000E+00   0.000000000000000E+00
   0.000000000000000E+00   0.000000000000000E+00   0.000000000000000E+00
   0.000000000000000E+00   0.000000000000000E+00   0.000000000000000E+00
   0.000000000000000E+00   0.000000000000000E+00   0.000000000000000E+00
   0.000000000000000E+00   0.000000000000000E+00   0.000000000000000E+00
   0.000000000000000E+00   0.000000000000000E+00   0.000000000000000E+00
   0.000000000000000E+00   0.000000000000000E+00   0.000000000000000E+00
   0.000000000000000E+00   0.000000000000000E+00   0.000000000000000E+00
   0.000000000000000E+00   0.000000000000000E+00   0.000000000000000E+00
   0.000000000000000E+00   0.000000000000000E+00   0.000000000000000E+00
   0.000000000000000E+00   0.000000000000000E+00   0.000000000000000E+00
   0.000000000000000E+00   0.000000000000000E+00   0.000000000000000E+00
   0.000000000000000E+00   0.000000000000000E+00   0.000000000000000E+00
   0.000000000000000E+00   0.000000000000000E+00   0.000000000000000E+00
   0.000000000000000E+00   0.000000000000000E+00   0.000000000000000E+00
   0.000000000000000E+00   0.000000000000000E+00   0.000000000000000E+00
   0.000000000000000E+00   0.000000000000000E+00   0.000000000000000E+00
   0.000000000000000E+00   0.000000000000000E+00   0.000000000000000E+00
   0.000000000000000E+00   0.000000000000000E+00   0.000000000000000E+00
   0.000000000000000E+00   0.000000000000000E+00   0.000000000000000E+00
   0.000000000000000E+00   0.000000000000000E+00   0.000000000000000E+00
   0.000000000000000E+00   0.000000000000000E+00   0.000000000000000E+00
   0.000000000000000E+00   0.000000000000000E+00   0.000000000000000E+00
   0.000000000000000E+00   0.000000000000000E+00   0.000000000000000E+00
   0.000000000000000E+00   0.000000000000000E+00   0.000000000000000E+00
   0.000000000000000E+00   0.000000000000000E+00   0.000000000000000E+00
   0.000000000000000E+00   0.000000000000000E+00   0.000000000000000E+00
   0.000000000000000E+00   0.000000000000000E+00   0.000000000000000E+00
   0.000000000000000E+00   0.000000000000000E+00   0.000000000000000E+00
   0.000000000000000E+00   0.000000000000000E+00   0.000000000000000E+00
   0.000000000000000E+00   0.000000000000000E+00   0.000000000000000E+00
   0.000000000000000E+00   0.000000000000000E+00   0.000000000000000E+00
   0.000000000000000E+00   0.000000000000000E+00   0.000000000000000E+00
   0.000000000000000E+00   0.000000000000000E+00   0.000000000000000E+00
   0.000000000000000E+00   0.000000000000000E+00   0.000000000000000E+00
   0.000000000000000E+00   0.000000000000000E+00   0.000000000000000E+00
   0.000000000000000E+00   0.000000000000000E+00   0.000000000000000E+00
   0.000000000000000E+00   0.000000000000000E+00   0.000000000000000E+00
   0.000000000000000E+00   0.000000000000000E+00   0.000000000000000E+00
   0.000000000000000E+00   0.000000000000000E+00   0.000000000000000E+00
   0.000000000000000E+00   0.000000000000000E+00   0.000000000000000E+00
   0.000000000000000E+00   0.000000000000000E+00   0.000000000000000E+00
   0.000000000000000E+00   0.000000000000000E+00   0.000000000000000E+00
   0.000000000000000E+00   0.000000000000000E+00   0.000000000000000E+00
   0.000000000000000E+00   0.000000000000000E+00   0.000000000000000E+00
   0.000000000000000E+00   0.000000000000000E+00   0.000000000000000E+00
   0.000000000000000E+00   0.000000000000000E+00   0.000000000000000E+00
   0.000000000000000E+00   0.000000000000000E+00   0.000000000000000E+00
   0.000000000000000E+00   0.000000000000000E+00   0.000000000000000E+00
   0.000000000000000E+00   0.000000000000000E+00   0.000000000000000E+00
   0.000000000000000E+00   0.000000000000000E+00   0.000000000000000E+00
   0.000000000000000E+00   0.000000000000000E+00   0.000000000000000E+00
   0.000000000000000E+00   0.000000000000000E+00   0.000000000000000E+00
   0.000000000000000E+00   0.000000000000000E+00   0.000000000000000E+00
   0.000000000000000E+00   0.000000000000000E+00   0.000000000000000E+00
   0.000000000000000E+00   0.000000000000000E+00   0.000000000000000E+00
   0.000000000000000E+00   0.000000000000000E+00   0.000000000000000E+00
   0.000000000000000E+00   0.000000000000000E+00   0.000000000000000E+00
   0.000000000000000E+00   0.000000000000000E+00   0.000000000000000E+00
   0.000000000000000E+00   0.000000000000000E+00   0.000000000000000E+00
   0.000000000000000E+00   0.000000000000000E+00   0.000000000000000E+00
   0.000000000000000E+00   0.000000000000000E+00   0.000000000000000E+00
   0.000000000000000E+00   0.000000000000000E+00   0.000000000000000E+00
   0.000000000000000E+00   0.000000000000000E+00   0.000000000000000E+00
   0.000000000000000E+00   0.000000000000000E+00   0.000000000000000E+00
   0.000000000000000E+00   0.000000000000000E+00   0.000000000000000E+00
   0.000000000000000E+00   0.000000000000000E+00   0.000000000000000E+00
   0.000000000000000E+00   0.000000000000000E+00   0.000000000000000E+00
   0.000000000000000E+00   0.000000000000000E+00   0.000000000000000E+00
   0.000000000000000E+00   0.000000000000000E+00   0.000000000000000E+00
   0.000000000000000E+00   0.000000000000000E+00   0.000000000000000E+00
   0.000000000000000E+00   0.000000000000000E+00   0.000000000000000E+00
   0.000000000000000E+00   0.000000000000000E+00   0.000000000000000E+00
   0.000000000000000E+00   0.000000000000000E+00   0.000000000000000E+00
   0.000000000000000E+00   0.000000000000000E+00   0.000000000000000E+00
   0.000000000000000E+00   0.000000000000000E+00   0.000000000000000E+00
   0.000000000000000E+00   0.000000000000000E+00   0.000000000000000E+00
   0.000000000000000E+00   0.000000000000000E+00   0.000000000000000E+00
   0.000000000000000E+00   0.000000000000000E+00   0.000000000000000E+00
   0.000000000000000E+00   0.000000000000000E+00   0.000000000000000E+00
      </PP_QIJL.1.4.1>
      <PP_QIJL.2.2.0 first_index="2" second_index="2" composite_index="3" angular_momentum="0" size="1095">
  -4.037504811250610E-08  -4.139714725066478E-08  -4.244512094805417E-08
  -4.351962422207303E-08  -4.462132867195517E-08  -4.575092289853968E-08
  -4.690911293466834E-08  -4.809662268647836E-08  -4.931419438586621E-08
  -5.056258905440631E-08  -5.184258697901282E-08  -5.315498819964359E-08
  -5.450061300935022E-08  -5.588030246698659E-08  -5.729491892289751E-08
  -5.874534655791371E-08  -6.023249193599283E-08  -6.175728457085020E-08
  -6.332067750693334E-08  -6.492364791510498E-08  -6.656719770340443E-08
  -6.825235414327141E-08  -6.998017051162241E-08  -7.175172674918123E-08
  -7.356813013547561E-08  -7.543051598092013E-08  -7.734004833642091E-08
  -7.929792072094275E-08  -8.130535686749497E-08  -8.336361148800258E-08
  -8.547397105753865E-08  -8.763775461841100E-08  -8.985631460460368E-08
  -9.213103768708909E-08  -9.446334564053996E-08  -9.685469623198079E-08
  -9.930658413193665E-08  -1.018205418486473E-07  -1.043981406859309E-07
  -1.070409917252963E-07  -1.097507468329168E-07  -1.125290996920963E-07
  -1.153777868618714E-07  -1.182985888624128E-07  -1.212933312879039E-07
  -1.243638859475897E-07  -1.275121720357141E-07  -1.307401573310723E-07
  -1.340498594269305E-07  -1.374433469920814E-07  -1.409227410638214E-07
  -1.444902163736615E-07  -1.481480027065977E-07  -1.518983862947906E-07
  -1.557437112465280E-07  -1.596863810113581E-07  -1.637288598823152E-07
  -1.678736745361738E-07  -1.721234156126927E-07  -1.764807393338395E-07
  -1.809483691640029E-07  -1.855290975122358E-07  -1.902257874775888E-07
  -1.950413746386271E-07  -1.999788688882497E-07  -2.050413563149543E-07
  -2.102320011317286E-07  -2.155540476537705E-07  -2.210108223262726E-07
  -2.266057358035431E-07  -2.323422850807546E-07  -2.382240556796616E-07
  -2.442547238896472E-07  -2.504380590655014E-07  -2.567779259833698E-07
  -2.632782872563373E-07  -2.699432058111668E-07  -2.767768474277340E-07
  -2.837834833427466E-07  -2.909674929193793E-07  -2.983333663844837E-07
  -3.058857076350966E-07  -3.136292371159904E-07  -3.215687947700684E-07
  -3.297093430634510E-07  -3.380559700871358E-07  -3.466138927371805E-07
  -3.553884599753883E-07  -3.643851561725365E-07  -3.736096045362407E-07
  -3.830675706255882E-07  -3.927649659547485E-07  -4.027078516878055E-07
  -4.129024424271229E-07  -4.233551100976129E-07  -4.340723879293267E-07
  -4.450609745408715E-07  -4.563277381261904E-07  -4.678797207473317E-07
  -4.797241427358899E-07  -4.918684072058583E-07  -5.043201046807328E-07
  -5.170870178377405E-07  -5.301771263721695E-07  -5.435986119848389E-07
  -5.573598634958143E-07  -5.714694820875837E-07  -5.859362866809568E-07
  -6.007693194470514E-07  -6.159778514588163E-07  -6.315713884856100E-07
  -6.475596769344736E-07  -6.639527099417990E-07  -6.807607336192019E-07
  -6.979942534575112E-07  -7.156640408928573E-07  -7.337811400389883E-07
  -7.523568745900032E-07  -7.714028548978208E-07  -7.909309852288158E-07
  -8.109534712041373E-07  -8.314828274283838E-07  -8.525318853113842E-07
  -8.741138010879814E-07  -8.962420640408339E-07  -9.189305049313533E-07
  -9.421933046440795E-07  -9.660450030498685E-07  -9.905005080934441E-07
  -1.015575105110996E-06  -1.041284466383627E-06  -1.067644660932648E-06
  -1.094672164562824E-06  -1.122383870159848E-06  -1.150797098248490E-06
  -1.179929607817999E-06  -1.209799607421545E-06  -1.240425766556622E-06
  -1.271827227333528E-06  -1.304023616439227E-06  -1.337035057404029E-06
  -1.370882183178815E-06  -1.405586149030606E-06  -1.441168645764578E-06
  -1.477651913280767E-06  -1.515058754473924E-06  -1.553412549485231E-06
  -1.592737270314778E-06  -1.633057495803904E-06  -1.674398426996815E-06
  -1.716785902891020E-06  -1.760246416586476E-06  -1.804807131843503E-06
  -1.850495900059836E-06  -1.897341277677406E-06  -1.945372544029719E-06
  -1.994619719641022E-06  -2.045113584988657E-06  -2.096885699740324E-06
  -2.149968422478313E-06  -2.204394930922966E-06  -2.260199242668068E-06
  -2.317416236441084E-06  -2.376081673901535E-06  -2.436232221991159E-06
  -2.497905475849729E-06  -2.561139982311026E-06  -2.625975263993417E-06
  -2.692451844000282E-06  -2.760611271245647E-06  -2.830496146420768E-06
  -2.902150148618099E-06  -2.975618062629013E-06  -3.050945806932550E-06
  -3.128180462392576E-06  -3.207370301681228E-06  -3.288564819447231E-06
  -3.371814763247650E-06  -3.457172165262642E-06  -3.544690374812919E-06
  -3.634424091700163E-06  -3.726429400391444E-06  -3.820763805068697E-06
  -3.917486265565414E-06  -4.016657234212874E-06  -4.118338693618858E-06
  -4.222594195402703E-06  -4.329488899910553E-06  -4.439089616935868E-06
  -4.551464847470572E-06  -4.666684826512748E-06  -4.784821566957968E-06
  -4.905948904601235E-06  -5.030142544278026E-06  -5.157480107173062E-06
  -5.288041179326282E-06  -5.421907361366612E-06  -5.559162319504203E-06
  -5.699891837813264E-06  -5.844183871838123E-06  -5.992128603555684E-06
  -6.143818497729167E-06  -6.299348359687689E-06  -6.458815394568236E-06
  -6.622319268056869E-06  -6.789962168666880E-06  -6.961848871593269E-06
  -7.138086804182841E-06  -7.318786113061240E-06  -7.504059732958671E-06
  -7.694023457277099E-06  -7.888796010443449E-06  -8.088499122093399E-06
  -8.293257603132524E-06  -8.503199423722131E-06  -8.718455793238223E-06
  -8.939161242254099E-06  -9.165453706596997E-06  -9.397474613531886E-06
  -9.635368970125932E-06  -9.879285453848575E-06  -1.012937650546438E-05
  -1.038579842427588E-05  -1.064871146577635E-05  -1.091827994177349E-05
  -1.119467232304584E-05  -1.147806134459709E-05  -1.176862411357276E-05
  -1.206654221990744E-05  -1.237200184977136E-05  -1.268519390188673E-05
  -1.300631410678717E-05  -1.333556314909374E-05  -1.367314679288446E-05
  -1.401927601023552E-05  -1.437416711301357E-05  -1.473804188800271E-05
  -1.511112773544885E-05  -1.549365781110899E-05  -1.588587117189371E-05
  -1.628801292519306E-05  -1.670033438198024E-05  -1.712309321378702E-05
  -1.755655361364992E-05  -1.800098646112704E-05  -1.845666949148818E-05
  -1.892388746918422E-05  -1.940293236570338E-05  -1.989410354192547E-05
  -2.039770793508788E-05  -2.091406025047927E-05  -2.144348315798117E-05
  -2.198630749357919E-05  -2.254287246596986E-05  -2.311352586839175E-05
  -2.369862429581238E-05  -2.429853336760690E-05  -2.491362795586639E-05
  -2.554429241947874E-05  -2.619092084412729E-05  -2.685391728835671E-05
  -2.753369603585976E-05  -2.823068185414113E-05  -2.894531025972025E-05
  -2.967802779003753E-05  -3.042929228223310E-05  -3.119957315897226E-05
  -3.198935172149440E-05  -3.279912145006858E-05  -3.362938831204216E-05
  -3.448067107767393E-05  -3.535350164394870E-05  -3.624842536657386E-05
  -3.716600140036494E-05  -3.810680304823157E-05  -3.907141811898022E-05
  -4.006044929415699E-05  -4.107451450415715E-05  -4.211424731383615E-05
  -4.318029731786116E-05  -4.427333054604795E-05  -4.539402987893631E-05
  -4.654309547386015E-05  -4.772124520177823E-05  -4.892921509513585E-05
  -5.016775980703494E-05  -5.143765308199886E-05  -5.273968823862173E-05
  -5.407467866440358E-05  -5.544345832307692E-05  -5.684688227473900E-05
  -5.828582720911333E-05  -5.976119199226904E-05  -6.127389822713821E-05
  -6.282489082817774E-05  -6.441513861053078E-05  -6.604563489405392E-05
  -6.771739812258223E-05  -6.943147249881634E-05  -7.118892863522427E-05
  -7.299086422135900E-05  -7.483840470800652E-05  -7.673270400858486E-05
  -7.867494521822906E-05  -8.066634135100561E-05  -8.270813609571054E-05
  -8.480160459071978E-05  -8.694805421836734E-05  -8.914882541934342E-05
  -9.140529252761331E-05  -9.371886462637180E-05  -9.609098642556135E-05
  -9.852313916149319E-05  -1.010168415191262E-04  -1.035736505775711E-04
  -1.061951627794009E-04  -1.088830149243649E-04  -1.116388851881149E-04
  -1.144644941665730E-04  -1.173616059465787E-04  -1.203320292034749E-04
  -1.233776183263060E-04  -1.265002745713167E-04  -1.297019472444602E-04
  -1.329846349136405E-04  -1.363503866514301E-04  -1.398013033090226E-04
  -1.433395388222032E-04  -1.469673015501322E-04  -1.506868556477606E-04
  -1.545005224727177E-04  -1.584106820275245E-04  -1.624197744380187E-04
  -1.665303014688889E-04  -1.707448280772406E-04  -1.750659840051438E-04
  -1.794964654121245E-04  -1.840390365486002E-04  -1.886965314712694E-04
  -1.934718558015004E-04  -1.983679885277863E-04  -2.033879838533528E-04
  -2.085349730900470E-04  -2.138121665996459E-04  -2.192228557837610E-04
  -2.247704151235436E-04  -2.304583042704149E-04  -2.362900701890897E-04
  -2.422693493541814E-04  -2.483998700017073E-04  -2.546854544368559E-04
  -2.611300213993917E-04  -2.677375884881282E-04  -2.745122746459138E-04
  -2.814583027066232E-04  -2.885800020056775E-04  -2.958818110556479E-04
  -3.033682802885463E-04  -3.110440748664336E-04  -3.189139775620173E-04
  -3.269828917109565E-04  -3.352558442376171E-04  -3.437379887560838E-04
  -3.524346087482552E-04  -3.613511208209035E-04  -3.704930780436274E-04
  -3.798661733696530E-04  -3.894762431415112E-04  -3.993292706836405E-04
  -4.094313899840278E-04  -4.197888894670448E-04  -4.304082158596768E-04
  -4.412959781534153E-04  -4.524589516641082E-04  -4.639040821921365E-04
  -4.756384902853327E-04  -4.876694756070993E-04  -5.000045214122674E-04
  -5.126512991332651E-04  -5.256176730792427E-04  -5.389117052508507E-04
  -5.525416602734236E-04  -5.665160104514024E-04  -5.808434409468662E-04
  -5.955328550851248E-04  -6.105933797903793E-04  -6.260343711545342E-04
  -6.418654201422859E-04  -6.580963584357225E-04  -6.747372644216969E-04
  -6.917984693253276E-04  -7.092905634930572E-04  -7.272244028287420E-04
  -7.456111153863653E-04  -7.644621081229974E-04  -7.837890738157292E-04
  -8.036039981463728E-04  -8.239191669577946E-04  -8.447471736858431E-04
  -8.661009269708983E-04  -8.879936584531502E-04  -9.104389307558142E-04
  -9.334506456605389E-04  -9.570430524793921E-04  -9.812307566278546E-04
  -1.006028728403359E-03  -1.031452311973997E-03  -1.057517234582078E-03
  -1.084239615967366E-03  -1.111635978014854E-03  -1.139723254632041E-03
  -1.168518801860800E-03  -1.198040408228950E-03  -1.228306305346807E-03
  -1.259335178754018E-03  -1.291146179022121E-03  -1.323758933118340E-03
  -1.357193556036188E-03  -1.391470662698629E-03  -1.426611380139536E-03
  -1.462637359969340E-03  -1.499570791130838E-03  -1.537434412951195E-03
  -1.576251528496301E-03  -1.616046018233699E-03  -1.656842354010403E-03
  -1.698665613352008E-03  -1.741541494089537E-03  -1.785496329320651E-03
  -1.830557102711788E-03  -1.876751464148005E-03  -1.924107745737280E-03
  -1.972654978176116E-03  -2.022422907483426E-03  -2.073442012109634E-03
  -2.125743520428059E-03  -2.179359428615713E-03  -2.234322518930596E-03
  -2.290666378392759E-03  -2.348425417876337E-03  -2.407634891619819E-03
  -2.468330917161877E-03  -2.530550495710023E-03  -2.594331532949488E-03
  -2.659712860299600E-03  -2.726734256625017E-03  -2.795436470409125E-03
  -2.865861242396853E-03  -2.938051328714216E-03  -3.012050524471738E-03
  -3.087903687858911E-03  -3.165656764736790E-03  -3.245356813735617E-03
  -3.327052031864448E-03  -3.410791780639490E-03  -3.496626612737738E-03
  -3.584608299182454E-03  -3.674789857066639E-03  -3.767225577820746E-03
  -3.861971056030365E-03  -3.959083218809558E-03  -4.058620355735243E-03
  -4.160642149347556E-03  -4.265209706221078E-03  -4.372385588611197E-03
  -4.482233846679650E-03  -4.594820051302834E-03  -4.710211327465908E-03
  -4.828476388245467E-03  -4.949685569382757E-03  -5.073910864448993E-03
  -5.201225960603724E-03  -5.331706274946345E-03  -5.465428991460448E-03
  -5.602473098549618E-03  -5.742919427162667E-03  -5.886850689505357E-03
  -6.034351518334585E-03  -6.185508506830319E-03  -6.340410249039129E-03
  -6.499147380882217E-03  -6.661812621719668E-03  -6.828500816461057E-03
  -6.999308978211594E-03  -7.174336331441091E-03  -7.353684355661709E-03
  -7.537456829598799E-03  -7.725759875837075E-03  -7.918702005922982E-03
  -8.116394165901653E-03  -8.318949782265023E-03  -8.526484808285422E-03
  -8.739117770706314E-03  -8.956969816759898E-03  -9.180164761478099E-03
  -9.408829135260970E-03  -9.643092231663663E-03  -9.883086155359540E-03
  -1.012894587023447E-02  -1.038080924756317E-02  -1.063881711421515E-02
  -1.090311330083414E-02  -1.117384468993013E-02  -1.145116126381988E-02
  -1.173521615234641E-02  -1.202616568030369E-02  -1.232416941448767E-02
  -1.262939021028938E-02  -1.294199425774092E-02  -1.326215112691856E-02
  -1.359003381260173E-02  -1.392581877808025E-02  -1.426968599799499E-02
  -1.462181900009097E-02  -1.498240490575383E-02  -1.535163446919327E-02
  -1.572970211512917E-02  -1.611680597482700E-02  -1.651314792032139E-02
  -1.691893359665635E-02  -1.733437245196194E-02  -1.775967776517651E-02
  -1.819506667121316E-02  -1.864076018335865E-02  -1.909698321268067E-02
  -1.956396458420803E-02  -2.004193704963578E-02  -2.053113729629362E-02
  -2.103180595210371E-02  -2.154418758623847E-02  -2.206853070517529E-02
  -2.260508774382951E-02  -2.315411505143065E-02  -2.371587287179169E-02
  -2.429062531760259E-02  -2.487864033836278E-02  -2.548018968154813E-02
  -2.609554884658920E-02  -2.672499703121808E-02  -2.736881706972038E-02
  -2.802729536260793E-02  -2.870072179720663E-02  -2.938938965862982E-02
  -3.009359553058688E-02  -3.081363918545061E-02  -3.154982346298376E-02
  -3.230245413709984E-02  -3.307183977000635E-02  -3.385829155305411E-02
  -3.466212313358719E-02  -3.548365042706138E-02  -3.632319141367086E-02
  -3.718106591869246E-02  -3.805759537572997E-02  -3.895310257200858E-02
  -3.986791137484082E-02  -4.080234643835448E-02  -4.175673288954115E-02
  -4.273139599265437E-02  -4.372666079095423E-02  -4.474285172476350E-02
  -4.578029222477090E-02  -4.683930427948331E-02  -4.792020797570151E-02
  -4.902332101086071E-02  -5.014895817604907E-02  -5.129743080848920E-02
  -5.246904621223721E-02  -5.366410704583149E-02  -5.488291067559400E-02
  -5.612574849326638E-02  -5.739290519664086E-02  -5.868465803182547E-02
  -6.000127599576958E-02  -6.134301899765856E-02  -6.271013697777870E-02
  -6.410286898244612E-02  -6.552144219358944E-02  -6.696607091158172E-02
  -6.843695548992090E-02  -6.993428122037265E-02  -7.145821716720969E-02
  -7.300891494920500E-02  -7.458650746807365E-02  -7.619110758209686E-02
  -7.782280672371455E-02  -7.948167345993276E-02  -8.116775199446265E-02
  -8.288106061059325E-02  -8.462159005389239E-02  -8.638930185394018E-02
  -8.818412658442355E-02  -9.000596206105559E-02  -9.185467147694415E-02
  -9.373008147520170E-02  -9.563198015878466E-02  -9.756011503776206E-02
  -9.951419091444605E-02  -1.014938677070785E-01  -1.034987582130462E-01
  -1.055284258129065E-01  -1.075823821168441E-01  -1.096600845555379E-01
  -1.117609339178200E-01  -1.138842718379318E-01  -1.160293782356430E-01
  -1.181954687130017E-01  -1.203816919120081E-01  -1.225871268380879E-01
  -1.248107801548422E-01  -1.270515834562113E-01  -1.293083905228839E-01
  -1.315799745705175E-01  -1.338650254981315E-01  -1.361621471458501E-01
  -1.384698545720627E-01  -1.407865713609817E-01  -1.431106269725559E-01
  -1.454402541477119E-01  -1.477735863829627E-01  -1.501086554895295E-01
  -1.524433892532837E-01  -1.547756092130063E-01  -1.571030285757084E-01
  -1.594232502890246E-01  -1.617337652920062E-01  -1.640319509669771E-01
  -1.663150698164768E-01  -1.685802683906991E-01  -1.708245764922208E-01
  -1.730449066862105E-01  -1.752380541456914E-01  -1.774006968627944E-01
  -1.795293962582795E-01  -1.816205982228854E-01  -1.836706346253008E-01
  -1.856757253227030E-01  -1.876319807108582E-01  -1.895354048517232E-01
  -1.913818992172772E-01  -1.931672670889486E-01  -1.948872186524384E-01
  -1.965373768279547E-01  -1.981132838758476E-01  -1.996104088172961E-01
  -2.010241557090637E-01  -2.023498728103309E-01  -2.035828626781994E-01
  -2.047183932266242E-01  -2.057517097811814E-01  -2.066780481592217E-01
  -2.074926488015077E-01  -2.081907719773611E-01  -2.087677140806031E-01
  -2.092188250281005E-01  -2.095395267664954E-01  -2.097253328856446E-01
  -2.097718693293880E-01  -2.096748961854532E-01  -2.094303305265670E-01
  -2.090342702641335E-01  -2.084830189641443E-01  -2.077731115622876E-01
  -2.069013409015100E-01  -2.058647850005802E-01  -2.046608349465047E-01
  -2.032872232870085E-01  -2.017420527817708E-01  -2.000238253527530E-01
  -1.981314710549087E-01  -1.960643768689103E-01  -1.938224150974388E-01
  -1.914059711262548E-01  -1.888159702908807E-01  -1.860539035695840E-01
  -1.831218518037067E-01  -1.800225081275841E-01  -1.767591982727465E-01
  -1.733358983951435E-01  -1.697572500603320E-01  -1.660285720103429E-01
  -1.621558683278931E-01  -1.581458326093232E-01  -1.540058477576908E-01
  -1.497439810125751E-01  -1.453689738439375E-01  -1.408902263545832E-01
  -1.363177758600738E-01  -1.316622693469574E-01  -1.269349295506764E-01
  -1.221475144439501E-01  -1.173122699854150E-01  -1.124418760472404E-01
  -1.075493855195346E-01  -1.026481566788359E-01  -9.775177900761606E-02
  -9.287399276125083E-02  -8.802860269763663E-02  -8.322938651152122E-02
  -7.848999864935069E-02  -7.382387031906613E-02  -6.924410665052025E-02
  -6.476338210313795E-02  -6.039383535452697E-02  -5.614696503296777E-02
  -5.203352777314221E-02  -4.806344017273108E-02  -4.424568630145737E-02
  -4.058823245692662E-02  -3.709795086593905E-02  -3.378055398778756E-02
  -3.064054097919516E-02  -2.768115772044063E-02  -2.490437157026468E-02
  -2.231086170517867E-02  -1.990002549903269E-02  -1.767000090456300E-02
  -1.561770420496224E-02  -1.373888180719607E-02  -1.202817394948328E-02
  -1.047918729608331E-02  -9.084572400559043E-03  -7.836100946324843E-03
  -6.724736538773056E-03  -5.740691651769880E-03  -4.873462155611442E-03
  -4.111829715188142E-03  -3.443821296896032E-03  -2.857902008451180E-03
  -2.347050484143770E-03  -1.905448552492223E-03  -1.527305476924423E-03
  -1.206890074074290E-03  -9.385633401718663E-04  -7.168116209868292E-04
  -5.362803212548423E-04  -3.918080894738940E-04  -2.784613323771612E-04
  -1.915692844080552E-04  -1.267593464776839E-04  -7.998881658506651E-05
  -4.757423841481034E-05  -2.622274889977488E-05  -1.305615637847007E-05
  -5.630478760985241E-06  -1.947572874274467E-06  -4.566857654195178E-07
  -4.302509199090310E-08   0.000000000000000E+00   0.000000000000000E+00
   0.000000000000000E+00   0.000000000000000E+00   0.000000000000000E+00
   0.000000000000000E+00   0.000000000000000E+00   0.000000000000000E+00
   0.000000000000000E+00   0.000000000000000E+00   0.000000000000000E+00
   0.000000000000000E+00   0.000000000000000E+00   0.000000000000000E+00
   0.000000000000000E+00   0.000000000000000E+00   0.000000000000000E+00
   0.000000000000000E+00   0.000000000000000E+00   0.000000000000000E+00
   0.000000000000000E+00   0.000000000000000E+00   0.000000000000000E+00
   0.000000000000000E+00   0.000000000000000E+00   0.000000000000000E+00
   0.000000000000000E+00   0.000000000000000E+00   0.000000000000000E+00
   0.000000000000000E+00   0.000000000000000E+00   0.000000000000000E+00
   0.000000000000000E+00   0.000000000000000E+00   0.000000000000000E+00
   0.000000000000000E+00   0.000000000000000E+00   0.000000000000000E+00
   0.000000000000000E+00   0.000000000000000E+00   0.000000000000000E+00
   0.000000000000000E+00   0.000000000000000E+00   0.000000000000000E+00
   0.000000000000000E+00   0.000000000000000E+00   0.000000000000000E+00
   0.000000000000000E+00   0.000000000000000E+00   0.000000000000000E+00
   0.000000000000000E+00   0.000000000000000E+00   0.000000000000000E+00
   0.000000000000000E+00   0.000000000000000E+00   0.000000000000000E+00
   0.000000000000000E+00   0.000000000000000E+00   0.000000000000000E+00
   0.000000000000000E+00   0.000000000000000E+00   0.000000000000000E+00
   0.000000000000000E+00   0.000000000000000E+00   0.000000000000000E+00
   0.000000000000000E+00   0.000000000000000E+00   0.000000000000000E+00
   0.000000000000000E+00   0.000000000000000E+00   0.000000000000000E+00
   0.000000000000000E+00   0.000000000000000E+00   0.000000000000000E+00
   0.000000000000000E+00   0.000000000000000E+00   0.000000000000000E+00
   0.000000000000000E+00   0.000000000000000E+00   0.000000000000000E+00
   0.000000000000000E+00   0.000000000000000E+00   0.000000000000000E+00
   0.000000000000000E+00   0.000000000000000E+00   0.000000000000000E+00
   0.000000000000000E+00   0.000000000000000E+00   0.000000000000000E+00
   0.000000000000000E+00   0.000000000000000E+00   0.000000000000000E+00
   0.000000000000000E+00   0.000000000000000E+00   0.000000000000000E+00
   0.000000000000000E+00   0.000000000000000E+00   0.000000000000000E+00
   0.000000000000000E+00   0.000000000000000E+00   0.000000000000000E+00
   0.000000000000000E+00   0.000000000000000E+00   0.000000000000000E+00
   0.000000000000000E+00   0.000000000000000E+00   0.000000000000000E+00
   0.000000000000000E+00   0.000000000000000E+00   0.000000000000000E+00
   0.000000000000000E+00   0.000000000000000E+00   0.000000000000000E+00
   0.000000000000000E+00   0.000000000000000E+00   0.000000000000000E+00
   0.000000000000000E+00   0.000000000000000E+00   0.000000000000000E+00
   0.000000000000000E+00   0.000000000000000E+00   0.000000000000000E+00
   0.000000000000000E+00   0.000000000000000E+00   0.000000000000000E+00
   0.000000000000000E+00   0.000000000000000E+00   0.000000000000000E+00
   0.000000000000000E+00   0.000000000000000E+00   0.000000000000000E+00
   0.000000000000000E+00   0.000000000000000E+00   0.000000000000000E+00
   0.000000000000000E+00   0.000000000000000E+00   0.000000000000000E+00
   0.000000000000000E+00   0.000000000000000E+00   0.000000000000000E+00
   0.000000000000000E+00   0.000000000000000E+00   0.000000000000000E+00
   0.000000000000000E+00   0.000000000000000E+00   0.000000000000000E+00
   0.000000000000000E+00   0.000000000000000E+00   0.000000000000000E+00
   0.000000000000000E+00   0.000000000000000E+00   0.000000000000000E+00
   0.000000000000000E+00   0.000000000000000E+00   0.000000000000000E+00
   0.000000000000000E+00   0.000000000000000E+00   0.000000000000000E+00
   0.000000000000000E+00   0.000000000000000E+00   0.000000000000000E+00
   0.000000000000000E+00   0.000000000000000E+00   0.000000000000000E+00
   0.000000000000000E+00   0.000000000000000E+00   0.000000000000000E+00
   0.000000000000000E+00   0.000000000000000E+00   0.000000000000000E+00
   0.000000000000000E+00   0.000000000000000E+00   0.000000000000000E+00
   0.000000000000000E+00   0.000000000000000E+00   0.000000000000000E+00
   0.000000000000000E+00   0.000000000000000E+00   0.000000000000000E+00
   0.000000000000000E+00   0.000000000000000E+00   0.000000000000000E+00
   0.000000000000000E+00   0.000000000000000E+00   0.000000000000000E+00
   0.000000000000000E+00   0.000000000000000E+00   0.000000000000000E+00
   0.000000000000000E+00   0.000000000000000E+00   0.000000000000000E+00
   0.000000000000000E+00   0.000000000000000E+00   0.000000000000000E+00
   0.000000000000000E+00   0.000000000000000E+00   0.000000000000000E+00
   0.000000000000000E+00   0.000000000000000E+00   0.000000000000000E+00
   0.000000000000000E+00   0.000000000000000E+00   0.000000000000000E+00
   0.000000000000000E+00   0.000000000000000E+00   0.000000000000000E+00
   0.000000000000000E+00   0.000000000000000E+00   0.000000000000000E+00
   0.000000000000000E+00   0.000000000000000E+00   0.000000000000000E+00
   0.000000000000000E+00   0.000000000000000E+00   0.000000000000000E+00
   0.000000000000000E+00   0.000000000000000E+00   0.000000000000000E+00
   0.000000000000000E+00   0.000000000000000E+00   0.000000000000000E+00
   0.000000000000000E+00   0.000000000000000E+00   0.000000000000000E+00
   0.000000000000000E+00   0.000000000000000E+00   0.000000000000000E+00
   0.000000000000000E+00   0.000000000000000E+00   0.000000000000000E+00
   0.000000000000000E+00   0.000000000000000E+00   0.000000000000000E+00
   0.000000000000000E+00   0.000000000000000E+00   0.000000000000000E+00
   0.000000000000000E+00   0.000000000000000E+00   0.000000000000000E+00
   0.000000000000000E+00   0.000000000000000E+00   0.000000000000000E+00
   0.000000000000000E+00   0.000000000000000E+00   0.000000000000000E+00
   0.000000000000000E+00   0.000000000000000E+00   0.000000000000000E+00
   0.000000000000000E+00   0.000000000000000E+00   0.000000000000000E+00
   0.000000000000000E+00   0.000000000000000E+00   0.000000000000000E+00
   0.000000000000000E+00   0.000000000000000E+00   0.000000000000000E+00
   0.000000000000000E+00   0.000000000000000E+00   0.000000000000000E+00
   0.000000000000000E+00   0.000000000000000E+00   0.000000000000000E+00
   0.000000000000000E+00   0.000000000000000E+00   0.000000000000000E+00
   0.000000000000000E+00   0.000000000000000E+00   0.000000000000000E+00
   0.000000000000000E+00   0.000000000000000E+00   0.000000000000000E+00
   0.000000000000000E+00   0.000000000000000E+00   0.000000000000000E+00
   0.000000000000000E+00   0.000000000000000E+00   0.000000000000000E+00
   0.000000000000000E+00   0.000000000000000E+00   0.000000000000000E+00
   0.000000000000000E+00   0.000000000000000E+00   0.000000000000000E+00
   0.000000000000000E+00   0.000000000000000E+00   0.000000000000000E+00
   0.000000000000000E+00   0.000000000000000E+00   0.000000000000000E+00
   0.000000000000000E+00   0.000000000000000E+00   0.000000000000000E+00
   0.000000000000000E+00   0.000000000000000E+00   0.000000000000000E+00
   0.000000000000000E+00   0.000000000000000E+00   0.000000000000000E+00
   0.000000000000000E+00   0.000000000000000E+00   0.000000000000000E+00
   0.000000000000000E+00   0.000000000000000E+00   0.000000000000000E+00
   0.000000000000000E+00   0.000000000000000E+00   0.000000000000000E+00
   0.000000000000000E+00   0.000000000000000E+00   0.000000000000000E+00
   0.000000000000000E+00   0.000000000000000E+00   0.000000000000000E+00
   0.000000000000000E+00   0.000000000000000E+00   0.000000000000000E+00
   0.000000000000000E+00   0.000000000000000E+00   0.000000000000000E+00
   0.000000000000000E+00   0.000000000000000E+00   0.000000000000000E+00
   0.000000000000000E+00   0.000000000000000E+00   0.000000000000000E+00
   0.000000000000000E+00   0.000000000000000E+00   0.000000000000000E+00
   0.000000000000000E+00   0.000000000000000E+00   0.000000000000000E+00
   0.000000000000000E+00   0.000000000000000E+00   0.000000000000000E+00
   0.000000000000000E+00   0.000000000000000E+00   0.000000000000000E+00
   0.000000000000000E+00   0.000000000000000E+00   0.000000000000000E+00
   0.000000000000000E+00   0.000000000000000E+00   0.000000000000000E+00
   0.000000000000000E+00   0.000000000000000E+00   0.000000000000000E+00
      </PP_QIJL.2.2.0>
      <PP_QIJL.2.3.1 first_index="2" second_index="3" composite_index="5" angular_momentum="1" size="1095">
   4.696063383536176E-12   4.875509327657522E-12   5.061812258628045E-12
   5.255234195541876E-12   5.456047169761699E-12   5.664533607507182E-12
   5.880986727062955E-12   6.105710951164660E-12   6.339022335143022E-12
   6.581249011428262E-12   6.832731651039702E-12   7.093823942709945E-12
   7.364893090317253E-12   7.646320329325767E-12   7.938501462960043E-12
   8.241847418867574E-12   8.556784827052762E-12   8.883756619894705E-12
   9.223222655092831E-12   9.575660362416625E-12   9.941565415168667E-12
   1.032145242730577E-11   1.071585567719838E-11   1.112532985904626E-11
   1.155045086300717E-11   1.199181658513574E-11   1.245004776827172E-11
   1.292578887506017E-11   1.341970899433135E-11   1.393250278211537E-11
   1.446489143861434E-11   1.501762372250699E-11   1.559147700401146E-11
   1.618725835818782E-11   1.680580570001771E-11   1.744798896285743E-11
   1.811471132192202E-11   1.880691046452110E-11   1.952555990883260E-11
   2.027167037306970E-11   2.104629119696560E-11   2.185051181757655E-11
   2.268546330147772E-11   2.355231993550718E-11   2.445230087829556E-11
   2.538667187490299E-11   2.635674703697624E-11   2.736389069092875E-11
   2.840951929674285E-11   2.949510344009349E-11   3.062216990059396E-11
   3.179230379907382E-11   3.300715082690793E-11   3.426841956053225E-11
   3.557788386440190E-11   3.693738538577000E-11   3.834883614479713E-11
   3.981422122363357E-11   4.133560155825583E-11   4.291511683698521E-11
   4.455498850976282E-11   4.625752291241542E-11   4.802511451030474E-11
   4.986024926592232E-11   5.176550813516694E-11   5.374357069721971E-11
   5.579721892312450E-11   5.792934108837192E-11   6.014293583498985E-11
   6.244111638885481E-11   6.482711493815219E-11   6.730428717914720E-11
   6.987611703565647E-11   7.254622155885902E-11   7.531835601433877E-11
   7.819641916350929E-11   8.118445874685315E-11   8.428667717668445E-11
   8.750743744744128E-11   9.085126927182151E-11   9.432287545138890E-11
   9.792713849061273E-11   1.016691274636402E-10   1.055541051434594E-10
   1.095875354034806E-10   1.137750909019422E-10   1.181226610599528E-10
   1.226363603443856E-10   1.273225368672764E-10   1.321877813138198E-10
   1.372389362115152E-10   1.424831055535047E-10   1.479276647896335E-10
   1.535802711992832E-10   1.594488746605698E-10   1.655417288310459E-10
   1.718674027556388E-10   1.784347929181429E-10   1.852531357532191E-10
   1.923320206364986E-10   1.996814033710526E-10   2.073116201892062E-10
   2.152334022893787E-10   2.234578909283985E-10   2.319966530905201E-10
   2.408616977551701E-10   2.500654927863136E-10   2.596209824671839E-10
   2.695416057050391E-10   2.798413149315490E-10   2.905345957253874E-10
   3.016364871846344E-10   3.131626030776341E-10   3.251291538020522E-10
   3.375529691830225E-10   3.504515221424325E-10   3.638429532726483E-10
   3.777460963492300E-10   3.921805048185174E-10   4.071664792973432E-10
   4.227250961235352E-10   4.388782369973726E-10   4.556486197556724E-10
   4.730598303217903E-10   4.911363558764691E-10   5.099036192961692E-10
   5.293880149073374E-10   5.496169456068749E-10   5.706188614010180E-10
   5.924232994168313E-10   6.150609254425645E-10   6.385635770553214E-10
   6.629643083966635E-10   6.882974366591333E-10   7.145985903490728E-10
   7.419047593935854E-10   7.702543471621414E-10   7.996872244759622E-10
   8.302447856811365E-10   8.619700068643440E-10   8.949075062930158E-10
   9.291036071649714E-10   9.646064027557488E-10   1.001465824055246E-09
   1.039733709988805E-09   1.079463880321455E-09   1.120712211347880E-09
   1.163536714474522E-09   1.207997617804326E-09   1.254157450838886E-09
   1.302081132417050E-09   1.351836062013706E-09   1.403492214527102E-09
   1.457122238687997E-09   1.512801559229056E-09   1.570608482958096E-09
   1.630624308884444E-09   1.692933442553181E-09   1.757623514748089E-09
   1.824785504730244E-09   1.894513868185481E-09   1.966906670060739E-09
   2.042065722476017E-09   2.120096727905892E-09   2.201109427831972E-09
   2.285217757075187E-09   2.372540004025174E-09   2.463198976991779E-09
   2.557322176912814E-09   2.655041976660856E-09   2.756495807201092E-09
   2.861826350862265E-09   2.971181741992130E-09   3.084715775279843E-09
   3.202588122038131E-09   3.324964554749173E-09   3.452017180190355E-09
   3.583924681467157E-09   3.720872569293933E-09   3.863053442875715E-09
   4.010667260757749E-09   4.163921622023941E-09   4.323032058239145E-09
   4.488222336546150E-09   4.659724774343365E-09   4.837780565985511E-09
   5.022640121967100E-09   5.214563421065018E-09   5.413820375935768E-09
   5.620691212681271E-09   5.835466864916624E-09   6.058449382894447E-09
   6.289952358260281E-09   6.530301365036840E-09   6.779834417456846E-09
   7.038902445287895E-09   7.307869787318255E-09   7.587114703696557E-09
   7.877029907846327E-09   8.178023118702939E-09   8.490517634048951E-09
   8.814952925754778E-09   9.151785257760326E-09   9.501488327667298E-09
   9.864553932843714E-09   1.024149266197674E-08   1.063283461304683E-08
   1.103913013873144E-08   1.146095062028683E-08   1.189888927099571E-08
   1.235356197030958E-08   1.282560812985933E-08   1.331569159255013E-08
   1.382450156600545E-08   1.435275359167183E-08   1.490119055094610E-08
   1.547058370974053E-08   1.606173380295240E-08   1.667547216036356E-08
   1.731266187555198E-08   1.797419901945747E-08   1.866101390030894E-08
   1.937407237168163E-08   2.011437719052451E-08   2.088296942706574E-08
   2.168092992857671E-08   2.250938083905390E-08   2.336948717695142E-08
   2.426245847318349E-08   2.518955047169798E-08   2.615206689500954E-08
   2.715136127717577E-08   2.818883886678883E-08   2.926595860265884E-08
   3.038423516496460E-08   3.154524110475156E-08   3.275060905477285E-08
   3.400203402477524E-08   3.530127578445794E-08   3.665016133745094E-08
   3.805058748978709E-08   3.950452351647974E-08   4.101401392994732E-08
   4.258118135417746E-08   4.420822950866631E-08   4.589744630632410E-08
   4.765120706969974E-08   4.947197787004011E-08   5.136231899387493E-08
   5.332488854199603E-08   5.536244616588390E-08   5.747785694683116E-08
   5.967409542320802E-08   6.195424977152700E-08   6.432152614717707E-08
   6.677925319092155E-08   6.933088670748941E-08   7.198001452282583E-08
   7.473036152682434E-08   7.758579490861877E-08   8.055032959178319E-08
   8.362813387707311E-08   8.682353530062439E-08   9.014102671583658E-08
   9.358527260747499E-08   9.716111564685254E-08   1.008735834972940E-07
   1.047278958794299E-07   1.087294719062362E-07   1.128839376981136E-07
   1.171971342886866E-07   1.216751258324208E-07   1.263242081255677E-07
   1.311509174523927E-07   1.361620397690979E-07   1.413646202383160E-07
   1.467659731275550E-07   1.523736920854689E-07   1.581956608103720E-07
   1.642400641259542E-07   1.705153994797246E-07   1.770304888803115E-07
   1.837944912903473E-07   1.908169154923163E-07   1.981076334453977E-07
   2.056768941520229E-07   2.135353380535871E-07   2.216940119754788E-07
   2.301643846423791E-07   2.389583627855632E-07   2.480883078647688E-07
   2.575670534280621E-07   2.674079231340086E-07   2.776247494613855E-07
   2.882318931326979E-07   2.992442632785743E-07   3.106773383712904E-07
   3.225471879570405E-07   3.348704952166686E-07   3.476645803875053E-07
   3.609474250777634E-07   3.747376975086219E-07   3.890547787190112E-07
   4.039187897692942E-07   4.193506199823952E-07   4.353719562618975E-07
   4.520053135277496E-07   4.692740663122546E-07   4.872024815607181E-07
   5.058157526824142E-07   5.251400348993625E-07   5.452024819426889E-07
   5.660312841472412E-07   5.876557079982743E-07   6.101061371850168E-07
   6.334141152186798E-07   6.576123896740201E-07   6.827349581169461E-07
   7.088171157814367E-07   7.358955050626693E-07   7.640081668954775E-07
   7.931945940897672E-07   8.234957866969646E-07   8.549543094849247E-07
   8.876143516016387E-07   9.215217885095589E-07   9.567242462797468E-07
   9.932711683314718E-07   1.031213884713509E-06   1.070605684021553E-06
   1.111501888052840E-06   1.153959929301429E-06   1.198039431402084E-06
   1.243802292634316E-06   1.291312772603202E-06   1.340637582216630E-06
   1.391845977085022E-06   1.445009854472294E-06   1.500203853932740E-06
   1.557505461774502E-06   1.616995119493063E-06   1.678756336326049E-06
   1.742875806086498E-06   1.809443528432428E-06   1.878552934746135E-06
   1.950301018794516E-06   2.024788472349738E-06   2.102119825962486E-06
   2.182403595077789E-06   2.265752431698522E-06   2.352283281804945E-06
   2.442117548747412E-06   2.535381262839447E-06   2.632205257382044E-06
   2.732725351366713E-06   2.837082539104043E-06   2.945423187042597E-06
   3.057899238048241E-06   3.174668423423808E-06   3.295894482963376E-06
   3.421747393340416E-06   3.552403605147138E-06   3.688046288907528E-06
   3.828865590402921E-06   3.975058895661524E-06   4.126831105972608E-06
   4.284394923303284E-06   4.447971146510291E-06   4.617788978748018E-06
   4.794086346495790E-06   4.977110230641261E-06   5.167117010066981E-06
   5.364372818214090E-06   5.569153913105434E-06   5.781747061333416E-06
   6.002449936534749E-06   6.231571532892739E-06   6.469432594229918E-06
   6.716366059273544E-06   6.972717523694024E-06   7.238845719547543E-06
   7.515123012765666E-06   7.801935919369755E-06   8.099685641100737E-06
   8.408788621193754E-06   8.729677121040445E-06   9.062799818517385E-06
   9.408622428784466E-06   9.767628348387358E-06   1.014031932352562E-05
   1.052721614338289E-05   1.092885935944641E-05   1.134581003177459E-05
   1.177865050321131E-05   1.222798520257460E-05   1.269444147788922E-05
   1.317867046077138E-05   1.368134796310772E-05   1.420317540721946E-05
   1.474488079073922E-05   1.530721968747333E-05   1.589097628556883E-05
   1.649696446435061E-05   1.712602891124102E-05   1.777904628022454E-05
   1.845692639337632E-05   1.916061348701867E-05   1.989108750412729E-05
   2.064936543467382E-05   2.143650270563569E-05   2.225359462247724E-05
   2.310177786395945E-05   2.398223203220727E-05   2.489618126002430E-05
   2.584489587751706E-05   2.682969414015746E-05   2.785194402049043E-05
   2.891306506576445E-05   3.001453032384028E-05   3.115786833981334E-05
   3.234466522587233E-05   3.357656680699121E-05   3.485528084514379E-05
   3.618257934482763E-05   3.756030094275512E-05   3.899035338469194E-05
   4.047471609249325E-05   4.201544282450750E-05   4.361466443261377E-05
   4.527459171925850E-05   4.699751839797994E-05   4.878582416100167E-05
   5.064197785760896E-05   5.256854078712471E-05   5.456817011042611E-05
   5.664362238407541E-05   5.879775722124576E-05   6.103354108376506E-05
   6.335405120973277E-05   6.576247968129086E-05   6.826213763727495E-05
   7.085645963560925E-05   7.354900817045288E-05   7.634347834924875E-05
   7.924370273498324E-05   8.225365635910234E-05   8.537746191070172E-05
   8.861939510774581E-05   9.198389025624740E-05   9.547554600348941E-05
   9.909913129153581E-05   1.028595915174519E-04   1.067620549068030E-04
   1.108118391071947E-04   1.150144580087619E-04   1.193756287987068E-04
   1.239012792571373E-04   1.285975553016492E-04   1.334708287882476E-04
   1.385277055763991E-04   1.437750338661448E-04   1.492199128154069E-04
   1.548697014457688E-04   1.607320278451752E-04   1.668147986761776E-04
   1.731262089984823E-04   1.796747524147415E-04   1.864692315486529E-04
   1.935187688645961E-04   2.008328178381517E-04   2.084211744869955E-04
   2.162939892717686E-04   2.244617793766268E-04   2.329354413792953E-04
   2.417262643205088E-04   2.508459431828040E-04   2.603065927886994E-04
   2.701207621282822E-04   2.803014491263231E-04   2.908621158589447E-04
   3.018167042299187E-04   3.131796521165604E-04   3.249659099951319E-04
   3.371909580555665E-04   3.498708238151368E-04   3.630221002405660E-04
   3.766619643878124E-04   3.908081965685116E-04   4.054792000517696E-04
   4.206940213096006E-04   4.364723708139189E-04   4.528346443925291E-04
   4.698019451509612E-04   4.873961059665000E-04   5.056397125599663E-04
   5.245561271501427E-04   5.441695126948336E-04   5.645048577216593E-04
   5.855880017506402E-04   6.074456613094862E-04   6.301054565412861E-04
   6.535959384029056E-04   6.779466164509131E-04   7.031879872102574E-04
   7.293515631190994E-04   7.564699020413085E-04   7.845766373360370E-04
   8.137065084714728E-04   8.438953921674995E-04   8.751803340492281E-04
   9.075995807905851E-04   9.411926127239986E-04   9.760001768888676E-04
   1.012064320487976E-03   1.049428424717101E-03   1.088137238928888E-03
   1.128236915087726E-03   1.169775042467428E-03   1.212800682538559E-03
   1.257364403986694E-03   1.303518317797048E-03   1.351316112334719E-03
   1.400813088343040E-03   1.452066193775498E-03   1.505134058369045E-03
   1.560077027858553E-03   1.616957197723599E-03   1.675838446349579E-03
   1.736786467475517E-03   1.799868801790537E-03   1.865154867530100E-03
   1.932715989911511E-03   2.002625429235825E-03   2.074958407470476E-03
   2.149792133113016E-03   2.227205824121939E-03   2.307280728685220E-03
   2.390100143580951E-03   2.475749429867535E-03   2.564316025622777E-03
   2.655889455432472E-03   2.750561336309099E-03   2.848425379700358E-03
   2.949577389225539E-03   3.054115253754537E-03   3.162138935420426E-03
   3.273750452131332E-03   3.389053854120905E-03   3.508155194049534E-03
   3.631162490139551E-03   3.758185681798025E-03   3.889336577149800E-03
   4.024728791871058E-03   4.164477678680643E-03   4.308700246811539E-03
   4.457515070749407E-03   4.611042187488172E-03   4.769402981514655E-03
   4.932720056695479E-03   5.101117094199296E-03   5.274718695546573E-03
   5.453650209837534E-03   5.638037544166162E-03   5.828006956185490E-03
   6.023684827745518E-03   6.225197418481414E-03   6.432670598185895E-03
   6.646229556755309E-03   6.865998490456181E-03   7.092100263215395E-03
   7.324656041595633E-03   7.563784902076839E-03   7.809603409225271E-03
   8.062225163295075E-03   8.321760315772406E-03   8.588315051341049E-03
   8.861991034720670E-03   9.142884820805079E-03   9.431087226509895E-03
   9.726682662725722E-03   1.002974842476684E-02   1.034035393970690E-02
   1.065855996900206E-02   1.098441776482220E-02   1.131796817853937E-02
   1.165924071986549E-02   1.200825256518528E-02   1.236500751370031E-02
   1.272949489008595E-02   1.310168839246622E-02   1.348154488463485E-02
   1.386900313159559E-02   1.426398247766229E-02   1.466638146655396E-02
   1.507607640314021E-02   1.549291985674442E-02   1.591673910619636E-02
   1.634733452714384E-02   1.678447792249137E-02   1.722791079722972E-02
   1.767734257936162E-02   1.813244878911593E-02   1.859286915917808E-02
   1.905820570925420E-02   1.952802077892923E-02   2.000183502348243E-02
   2.047912537808711E-02   2.095932299664947E-02   2.144181117243777E-02
   2.192592324861740E-02   2.241094052784630E-02   2.289609019119768E-02
   2.338054323786554E-02   2.386341245837740E-02   2.434375045538368E-02
   2.482054772752017E-02   2.529273083334494E-02   2.575916065393413E-02
   2.621863077438163E-02   2.666986600617856E-02   2.711152107425083E-02
   2.754217949429646E-02   2.796035266798363E-02   2.836447922553694E-02
   2.875292464724034E-02   2.912398119740877E-02   2.947586820641066E-02
   2.980673273834139E-02   3.011465068393336E-02   3.039762832021532E-02
   3.065360438027656E-02   3.088045267821665E-02   3.107598533593466E-02
   3.123795665979329E-02   3.136406771633794E-02   3.145197165711086E-02
   3.149927984312165E-02   3.150356881965842E-02   3.146238819178621E-02
   3.137326945000864E-02   3.123373579409455E-02   3.104131300090941E-02
   3.079354137916031E-02   3.048798885017082E-02   3.012226518905638E-02
   2.969403745487233E-02   2.920104663135466E-02   2.864112549166896E-02
   2.801221769101422E-02   2.731239807990268E-02   2.653989421834565E-02
   2.569310905692444E-02   2.477064473473417E-02   2.377132742635948E-02
   2.269423315033295E-02   2.153871442986740E-02   2.030442767302694E-02
   1.899136111391111E-02   1.759986312887568E-02   1.613067071240644E-02
   1.458493786606481E-02   1.296426362112267E-02   1.127071938130820E-02
   9.506875236749061E-03   7.675824864115287E-03   5.781208591518081E-03
   3.827234170458079E-03   1.818694761651746E-03  -2.390163924155010E-04
  -2.339895166976995E-03  -4.477320213640107E-03  -6.644051689337394E-03
  -8.832235685152342E-03  -1.103341499621622E-02  -1.323854687715646E-02
  -1.543802842102402E-02  -1.762173018153206E-02  -1.977903862702995E-02
  -2.189890796811919E-02  -2.396992183723259E-02  -2.598036521601210E-02
  -2.791830690301199E-02  -2.977169268833595E-02  -3.152844925167108E-02
  -3.317659862431872E-02  -3.470438285316402E-02  -3.610039827430730E-02
  -3.735373854607869E-02  -3.845414530580668E-02  -3.939216500314378E-02
  -4.015931012708791E-02  -4.074822268719452E-02  -4.115283743621750E-02
  -4.136854193729972E-02  -4.139233019111404E-02  -4.122294615601072E-02
  -4.086101312802524E-02  -4.030914461024551E-02  -3.957203200721850E-02
  -3.865650424650568E-02  -3.757155427484600E-02  -3.632832732119220E-02
  -3.494006588532479E-02  -3.342200662229024E-02  -3.179122467390415E-02
  -3.006642157355236E-02  -2.826765364354539E-02  -2.641599883783484E-02
  -2.453316127675905E-02  -2.264101429042019E-02  -2.076108464330385E-02
  -1.891398275743158E-02  -1.711878617776884E-02  -1.539238621321324E-02
  -1.374881060684589E-02  -1.219853819151393E-02  -1.074782470407622E-02
  -9.398062176017366E-03  -8.145197479414220E-03  -6.982168807583067E-03
  -5.909166041665748E-03  -4.927900847294553E-03  -4.039110064770979E-03
  -3.242551615193212E-03  -2.537013773255936E-03  -1.920338556011314E-03
  -1.389459802755622E-03  -9.404563124766896E-04  -5.686201606848185E-04
  -2.685400354832668E-04  -3.419911311797197E-05   1.409133642866212E-04
   2.636780409774331E-04   3.412105925511000E-04   3.807181907661272E-04
   3.893499097830655E-04   3.740442154468449E-04   3.413772224665212E-04
   2.974172386891183E-04   2.475910666987768E-04   1.965586611442360E-04
   1.481058432754867E-04   1.050769658239581E-04   6.933316250684607E-05
   4.175498638045450E-05   2.229328097688721E-05   1.007661594529252E-05
   3.582836146973079E-06   8.821774557590811E-07   8.554756859152635E-08
   0.000000000000000E+00   0.000000000000000E+00   0.000000000000000E+00
   0.000000000000000E+00   0.000000000000000E+00   0.000000000000000E+00
   0.000000000000000E+00   0.000000000000000E+00   0.000000000000000E+00
   0.000000000000000E+00   0.000000000000000E+00   0.000000000000000E+00
   0.000000000000000E+00   0.000000000000000E+00   0.000000000000000E+00
   0.000000000000000E+00   0.000000000000000E+00   0.000000000000000E+00
   0.000000000000000E+00   0.000000000000000E+00   0.000000000000000E+00
   0.000000000000000E+00   0.000000000000000E+00   0.000000000000000E+00
   0.000000000000000E+00   0.000000000000000E+00   0.000000000000000E+00
   0.000000000000000E+00   0.000000000000000E+00   0.000000000000000E+00
   0.000000000000000E+00   0.000000000000000E+00   0.000000000000000E+00
   0.000000000000000E+00   0.000000000000000E+00   0.000000000000000E+00
   0.000000000000000E+00   0.000000000000000E+00   0.000000000000000E+00
   0.000000000000000E+00   0.000000000000000E+00   0.000000000000000E+00
   0.000000000000000E+00   0.000000000000000E+00   0.000000000000000E+00
   0.000000000000000E+00   0.000000000000000E+00   0.000000000000000E+00
   0.000000000000000E+00   0.000000000000000E+00   0.000000000000000E+00
   0.000000000000000E+00   0.000000000000000E+00   0.000000000000000E+00
   0.000000000000000E+00   0.000000000000000E+00   0.000000000000000E+00
   0.000000000000000E+00   0.000000000000000E+00   0.000000000000000E+00
   0.000000000000000E+00   0.000000000000000E+00   0.000000000000000E+00
   0.000000000000000E+00   0.000000000000000E+00   0.000000000000000E+00
   0.000000000000000E+00   0.000000000000000E+00   0.000000000000000E+00
   0.000000000000000E+00   0.000000000000000E+00   0.000000000000000E+00
   0.000000000000000E+00   0.000000000000000E+00   0.000000000000000E+00
   0.000000000000000E+00   0.000000000000000E+00   0.000000000000000E+00
   0.000000000000000E+00   0.000000000000000E+00   0.000000000000000E+00
   0.000000000000000E+00   0.000000000000000E+00   0.000000000000000E+00
   0.000000000000000E+00   0.000000000000000E+00   0.000000000000000E+00
   0.000000000000000E+00   0.000000000000000E+00   0.000000000000000E+00
   0.000000000000000E+00   0.000000000000000E+00   0.000000000000000E+00
   0.000000000000000E+00   0.000000000000000E+00   0.000000000000000E+00
   0.000000000000000E+00   0.000000000000000E+00   0.000000000000000E+00
   0.000000000000000E+00   0.000000000000000E+00   0.000000000000000E+00
   0.000000000000000E+00   0.000000000000000E+00   0.000000000000000E+00
   0.000000000000000E+00   0.000000000000000E+00   0.000000000000000E+00
   0.000000000000000E+00   0.000000000000000E+00   0.000000000000000E+00
   0.000000000000000E+00   0.000000000000000E+00   0.000000000000000E+00
   0.000000000000000E+00   0.000000000000000E+00   0.000000000000000E+00
   0.000000000000000E+00   0.000000000000000E+00   0.000000000000000E+00
   0.000000000000000E+00   0.000000000000000E+00   0.000000000000000E+00
   0.000000000000000E+00   0.000000000000000E+00   0.000000000000000E+00
   0.000000000000000E+00   0.000000000000000E+00   0.000000000000000E+00
   0.000000000000000E+00   0.000000000000000E+00   0.000000000000000E+00
   0.000000000000000E+00   0.000000000000000E+00   0.000000000000000E+00
   0.000000000000000E+00   0.000000000000000E+00   0.000000000000000E+00
   0.000000000000000E+00   0.000000000000000E+00   0.000000000000000E+00
   0.000000000000000E+00   0.000000000000000E+00   0.000000000000000E+00
   0.000000000000000E+00   0.000000000000000E+00   0.000000000000000E+00
   0.000000000000000E+00   0.000000000000000E+00   0.000000000000000E+00
   0.000000000000000E+00   0.000000000000000E+00   0.000000000000000E+00
   0.000000000000000E+00   0.000000000000000E+00   0.000000000000000E+00
   0.000000000000000E+00   0.000000000000000E+00   0.000000000000000E+00
   0.000000000000000E+00   0.000000000000000E+00   0.000000000000000E+00
   0.000000000000000E+00   0.000000000000000E+00   0.000000000000000E+00
   0.000000000000000E+00   0.000000000000000E+00   0.000000000000000E+00
   0.000000000000000E+00   0.000000000000000E+00   0.000000000000000E+00
   0.000000000000000E+00   0.000000000000000E+00   0.000000000000000E+00
   0.000000000000000E+00   0.000000000000000E+00   0.000000000000000E+00
   0.000000000000000E+00   0.000000000000000E+00   0.000000000000000E+00
   0.000000000000000E+00   0.000000000000000E+00   0.000000000000000E+00
   0.000000000000000E+00   0.000000000000000E+00   0.000000000000000E+00
   0.000000000000000E+00   0.000000000000000E+00   0.000000000000000E+00
   0.000000000000000E+00   0.000000000000000E+00   0.000000000000000E+00
   0.000000000000000E+00   0.000000000000000E+00   0.000000000000000E+00
   0.000000000000000E+00   0.000000000000000E+00   0.000000000000000E+00
   0.000000000000000E+00   0.000000000000000E+00   0.000000000000000E+00
   0.000000000000000E+00   0.000000000000000E+00   0.000000000000000E+00
   0.000000000000000E+00   0.000000000000000E+00   0.000000000000000E+00
   0.000000000000000E+00   0.000000000000000E+00   0.000000000000000E+00
   0.000000000000000E+00   0.000000000000000E+00   0.000000000000000E+00
   0.000000000000000E+00   0.000000000000000E+00   0.000000000000000E+00
   0.000000000000000E+00   0.000000000000000E+00   0.000000000000000E+00
   0.000000000000000E+00   0.000000000000000E+00   0.000000000000000E+00
   0.000000000000000E+00   0.000000000000000E+00   0.000000000000000E+00
   0.000000000000000E+00   0.000000000000000E+00   0.000000000000000E+00
   0.000000000000000E+00   0.000000000000000E+00   0.000000000000000E+00
   0.000000000000000E+00   0.000000000000000E+00   0.000000000000000E+00
   0.000000000000000E+00   0.000000000000000E+00   0.000000000000000E+00
   0.000000000000000E+00   0.000000000000000E+00   0.000000000000000E+00
   0.000000000000000E+00   0.000000000000000E+00   0.000000000000000E+00
   0.000000000000000E+00   0.000000000000000E+00   0.000000000000000E+00
   0.000000000000000E+00   0.000000000000000E+00   0.000000000000000E+00
   0.000000000000000E+00   0.000000000000000E+00   0.000000000000000E+00
   0.000000000000000E+00   0.000000000000000E+00   0.000000000000000E+00
   0.000000000000000E+00   0.000000000000000E+00   0.000000000000000E+00
   0.000000000000000E+00   0.000000000000000E+00   0.000000000000000E+00
   0.000000000000000E+00   0.000000000000000E+00   0.000000000000000E+00
   0.000000000000000E+00   0.000000000000000E+00   0.000000000000000E+00
   0.000000000000000E+00   0.000000000000000E+00   0.000000000000000E+00
   0.000000000000000E+00   0.000000000000000E+00   0.000000000000000E+00
   0.000000000000000E+00   0.000000000000000E+00   0.000000000000000E+00
   0.000000000000000E+00   0.000000000000000E+00   0.000000000000000E+00
   0.000000000000000E+00   0.000000000000000E+00   0.000000000000000E+00
   0.000000000000000E+00   0.000000000000000E+00   0.000000000000000E+00
   0.000000000000000E+00   0.000000000000000E+00   0.000000000000000E+00
   0.000000000000000E+00   0.000000000000000E+00   0.000000000000000E+00
   0.000000000000000E+00   0.000000000000000E+00   0.000000000000000E+00
   0.000000000000000E+00   0.000000000000000E+00   0.000000000000000E+00
   0.000000000000000E+00   0.000000000000000E+00   0.000000000000000E+00
   0.000000000000000E+00   0.000000000000000E+00   0.000000000000000E+00
   0.000000000000000E+00   0.000000000000000E+00   0.000000000000000E+00
   0.000000000000000E+00   0.000000000000000E+00   0.000000000000000E+00
   0.000000000000000E+00   0.000000000000000E+00   0.000000000000000E+00
   0.000000000000000E+00   0.000000000000000E+00   0.000000000000000E+00
   0.000000000000000E+00   0.000000000000000E+00   0.000000000000000E+00
   0.000000000000000E+00   0.000000000000000E+00   0.000000000000000E+00
   0.000000000000000E+00   0.000000000000000E+00   0.000000000000000E+00
   0.000000000000000E+00   0.000000000000000E+00   0.000000000000000E+00
   0.000000000000000E+00   0.000000000000000E+00   0.000000000000000E+00
   0.000000000000000E+00   0.000000000000000E+00   0.000000000000000E+00
   0.000000000000000E+00   0.000000000000000E+00   0.000000000000000E+00
   0.000000000000000E+00   0.000000000000000E+00   0.000000000000000E+00
   0.000000000000000E+00   0.000000000000000E+00   0.000000000000000E+00
   0.000000000000000E+00   0.000000000000000E+00   0.000000000000000E+00
      </PP_QIJL.2.3.1>
      <PP_QIJL.2.4.1 first_index="2" second_index="4" composite_index="8" angular_momentum="1" size="1095">
   2.943976041473816E-12   3.056471235018541E-12   3.173265093902487E-12
   3.294521878669948E-12   3.420412126585897E-12   3.551112891481805E-12
   3.686807992766483E-12   3.827688273952110E-12   3.973951871059007E-12
   4.125804491276766E-12   4.283459702273433E-12   4.447139232559859E-12
   4.617073283331528E-12   4.793500852226438E-12   4.976670069454487E-12
   5.166838546770859E-12   5.364273739784498E-12   5.569253324111042E-12
   5.782065585899253E-12   6.003009827280321E-12   6.232396787309998E-12
   6.470549078995899E-12   6.717801643024376E-12   6.974502218825198E-12
   7.241011833636545E-12   7.517705310257987E-12   7.804971794205852E-12
   8.103215301012097E-12   8.412855284436526E-12   8.734327226391594E-12
   9.068083249409139E-12   9.414592752510877E-12   9.774343071376554E-12
   1.014784016373846E-11   1.053560932096621E-11   1.093819590684234E-11
   1.135616612456814E-11   1.179010781307810E-11   1.224063127378306E-11
   1.270837012890494E-11   1.319398221260965E-11   1.369815049619231E-11
   1.422158404861527E-11   1.476501903375019E-11   1.532921974572666E-11
   1.591497968384318E-11   1.652312266855279E-11   1.715450400009245E-11
   1.781001166138572E-11   1.849056756691094E-11   1.919712885929037E-11
   1.993068925542495E-11   2.069228044406716E-11   2.148297353679752E-11
   2.230388057444612E-11   2.315615609107646E-11   2.404099873773266E-11
   2.495965296823278E-11   2.591341078937919E-11   2.690361357804819E-11
   2.793165396771312E-11   2.899897780705559E-11   3.010708619341859E-11
   3.125753758396117E-11   3.245194998748495E-11   3.369200324001307E-11
   3.497944136732403E-11   3.631607503776175E-11   3.770378410877174E-11
   3.914452027074549E-11   4.064030979188980E-11   4.219325636798328E-11
   4.380554408102671E-11   4.547944047094824E-11   4.721729972468482E-11
   4.902156598712229E-11   5.089477679855363E-11   5.283956666348782E-11
   5.485867075582874E-11   5.695492876563615E-11   5.913128889287636E-11
   6.139081199378235E-11   6.373667588565254E-11   6.617217981614297E-11
   6.870074910333946E-11   7.132593995313286E-11   7.405144446067596E-11
   7.688109580295309E-11   7.981887362976649E-11   8.286890966072174E-11
   8.603549349608120E-11   8.932307864966110E-11   9.273628881225455E-11
   9.627992435438959E-11   9.995896907756883E-11   1.037785972234822E-10
   1.077441807510551E-10   1.118612968915620E-10   1.161357359924325E-10
   1.205735096607830E-10   1.251808592181213E-10   1.299642644781210E-10
   1.349304528598061E-10   1.400864088489638E-10   1.454393838210935E-10
   1.509969062396997E-10   1.567667922442815E-10   1.627571566429008E-10
   1.689764243247924E-10   1.754333421090672E-10   1.821369910461664E-10
   1.890967991893742E-10   1.963225548543457E-10   2.038244203852978E-10
   2.116129464472266E-10   2.196990868642431E-10   2.280942140249058E-10
   2.368101348762067E-10   2.458591075287077E-10   2.552538584961806E-10
   2.650076005939883E-10   2.751340515213909E-10   2.856474531538966E-10
   2.965625915727982E-10   3.078948178600602E-10   3.196600696877940E-10
   3.318748937326981E-10   3.445564689469701E-10   3.577226307184259E-10
   3.713918959538018E-10   3.855834891205056E-10   4.003173692834552E-10
   4.156142581750128E-10   4.314956693374963E-10   4.479839383792548E-10
   4.651022543868404E-10   4.828746925374750E-10   5.013262479576574E-10
   5.204828708755305E-10   5.403715031164502E-10   5.610201159930597E-10
   5.824577496431791E-10   6.047145538708105E-10   6.278218305476995E-10
   6.518120776350871E-10   6.767190348875385E-10   7.025777313031466E-10
   7.294245343868209E-10   7.572972012959360E-10   7.862349319402856E-10
   8.162784241109756E-10   8.474699307158203E-10   8.798533192017051E-10
   9.134741332474819E-10   9.483796568141618E-10   9.846189806424458E-10
   1.022243071291145E-09   1.061304842813538E-09   1.101859231172475E-09
   1.143963271498873E-09   1.187676178302218E-09   1.233059428745907E-09
   1.280176849104498E-09   1.329094704524449E-09   1.379881792214593E-09
   1.432609538197310E-09   1.487352097756592E-09   1.544186459724064E-09
   1.603192554749748E-09   1.664453367709767E-09   1.728055054408984E-09
   1.794087062742831E-09   1.862642258488505E-09   1.933817055902562E-09
   2.007711553308494E-09   2.084429673864840E-09   2.164079311712009E-09
   2.246772483702996E-09   2.332625486931594E-09   2.421759062279495E-09
   2.514298564212146E-09   2.610374137062362E-09   2.710120898049211E-09
   2.813679127289815E-09   2.921194465071063E-09   3.032818116658542E-09
   3.148707064930924E-09   3.269024291138408E-09   3.393939004095864E-09
   3.523626878132877E-09   3.658270300135022E-09   3.798058626024128E-09
   3.943188447037609E-09   4.093863866181646E-09   4.250296785246730E-09
   4.412707202788919E-09   4.581323523496162E-09   4.756382879374097E-09
   4.938131463203267E-09   5.126824874736435E-09   5.322728480122418E-09
   5.526117785062340E-09   5.737278822222126E-09   5.956508553446463E-09
   6.184115287339433E-09   6.420419112798567E-09   6.665752349112400E-09
   6.920460013253469E-09   7.184900305024210E-09   7.459445110737538E-09
   7.744480526139782E-09   8.040407399311809E-09   8.347641894310468E-09
   8.666616076343401E-09   8.997778519299437E-09   9.341594936488160E-09
   9.698548835476077E-09   1.006914219793862E-08   1.045389618548446E-08
   1.085335187244374E-08   1.126807100664988E-08   1.169863679928499E-08
   1.214565474489785E-08   1.260975347274779E-08   1.309158563067062E-08
   1.359182880270812E-08   1.411118646179210E-08   1.465038895881993E-08
   1.521019454951295E-08   1.579139046050009E-08   1.639479399612424E-08
   1.702125368752807E-08   1.767165048563193E-08   1.834689899968168E-08
   1.904794878310613E-08   1.977578566848984E-08   2.053143315353901E-08
   2.131595383998501E-08   2.213045092744916E-08   2.297606976436678E-08
   2.385399945814810E-08   2.476547454684078E-08   2.571177673463873E-08
   2.669423669367795E-08   2.771423593464918E-08   2.877320874885431E-08
   2.987264422443559E-08   3.101408833960813E-08   3.219914613583653E-08
   3.342948397400750E-08   3.470683187676618E-08   3.603298596030707E-08
   3.740981095903265E-08   3.883924284662641E-08   4.032329155721981E-08
   4.186404381047386E-08   4.346366604454279E-08   4.512440746103606E-08
   4.684860318625532E-08   4.863867755314311E-08   5.049714750855032E-08
   5.242662615060649E-08   5.442982640115645E-08   5.650956481841957E-08
   5.866876555522176E-08   6.091046446835495E-08   6.323781338483267E-08
   6.565408453102613E-08   6.816267513089796E-08   7.076711217978446E-08
   7.347105740042357E-08   7.627831238818356E-08   7.919282395270802E-08
   8.221868966347234E-08   8.536016360702992E-08   8.862166236402157E-08
   9.200777121433370E-08   9.552325057910405E-08   9.917304270861144E-08
   1.029622786254263E-07   1.068962853325546E-07   1.109805932966855E-07
   1.152209442170277E-07   1.196232990906291E-07   1.241938465854816E-07
   1.289390117331461E-07   1.338654649530816E-07   1.389801314213196E-07
   1.442902007966153E-07   1.498031373176988E-07   1.555266902857700E-07
   1.614689049469248E-07   1.676381337897475E-07   1.740430482739102E-07
   1.806926510060956E-07   1.875962883806477E-07   1.947636637019463E-07
   2.022048508077039E-07   2.099303082116915E-07   2.179508937858565E-07
   2.262778800022959E-07   2.349229697567564E-07   2.438983127950564E-07
   2.532165227664492E-07   2.628906949266583E-07   2.729344245162981E-07
   2.833618258397054E-07   2.941875520711613E-07   3.054268158162510E-07
   3.170954104567979E-07   3.292097323095255E-07   3.417868036290394E-07
   3.548442964878533E-07   3.684005575659049E-07   3.824746338851551E-07
   3.970862995244959E-07   4.122560833525402E-07   4.280052978168568E-07
   4.443560688301521E-07   4.613313667945651E-07   4.789550388078527E-07
   4.972518420958247E-07   5.162474787183728E-07   5.359686315967312E-07
   5.564430019122258E-07   5.776993479297844E-07   5.997675252981897E-07
   6.226785288852371E-07   6.464645362045123E-07   6.711589524954120E-07
   6.967964575181959E-07   7.234130541292785E-07   7.510461187056311E-07
   7.797344534857457E-07   8.095183409026981E-07   8.404395999830833E-07
   8.725416448905821E-07   9.058695456954937E-07   9.404700914547046E-07
   9.763918556889828E-07   1.013685264349743E-06   1.052402666367947E-06
   1.092598406883411E-06   1.134328903257112E-06   1.177652723970266E-06
   1.222630670519323E-06   1.269325862422405E-06   1.317803825451597E-06
   1.368132583215848E-06   1.420382752219051E-06   1.474627640526028E-06
   1.530943350171452E-06   1.589408883454777E-06   1.650106253264910E-06
   1.713120597590263E-06   1.778540298369019E-06   1.846457104844844E-06
   1.916966261597829E-06   1.990166641425582E-06   2.066160883259282E-06
   2.145055535301717E-06   2.226961203586024E-06   2.311992706157738E-06
   2.400269233092203E-06   2.491914512566803E-06   2.587056983214431E-06
   2.685829972995816E-06   2.788371884834128E-06   2.894826389266130E-06
   3.005342624372454E-06   3.120075403261300E-06   3.239185429386715E-06
   3.362839519995825E-06   3.491210838010174E-06   3.624479132654168E-06
   3.762830989160510E-06   3.906460087889840E-06   4.055567473217029E-06
   4.210361832548458E-06   4.371059785847779E-06   4.537886186062784E-06
   4.711074430858757E-06   4.890866786078826E-06   5.077514721368826E-06
   5.271279258417619E-06   5.472431332282741E-06   5.681252166285635E-06
   5.898033660980896E-06   6.123078797720321E-06   6.356702057354217E-06
   6.599229854626576E-06   6.851000988847581E-06   7.112367111442932E-06
   7.383693211003446E-06   7.665358116479393E-06   7.957755019189115E-06
   8.261292014333608E-06   8.576392662733912E-06   8.903496573532686E-06
   9.243060008633428E-06   9.595556509667888E-06   9.961477548320442E-06
   1.034133320086290E-05   1.073565284777982E-05   1.114498589940614E-05
   1.156990254851812E-05   1.201099455086204E-05   1.246887603463316E-05
   1.294418433995704E-05   1.343758088945822E-05   1.394975209104318E-05
   1.448141027405708E-05   1.503329466002152E-05   1.560617236919709E-05
   1.620083946425685E-05   1.681812203240468E-05   1.745887730731367E-05
   1.812399483230885E-05   1.881439766626613E-05   1.953104363374986E-05
   2.027492662095916E-05   2.104707791910976E-05   2.184856761693249E-05
   2.268050604401699E-05   2.354404526680041E-05   2.444038063904757E-05
   2.537075240873233E-05   2.633644738330067E-05   2.733880065534443E-05
   2.837919739079621E-05   2.945907468180947E-05   3.057992346656844E-05
   3.174329051833448E-05   3.295078050611245E-05   3.420405812939459E-05
   3.550485032951561E-05   3.685494858022785E-05   3.825621126018924E-05
   3.971056611013535E-05   4.122001277759265E-05   4.278662545207005E-05
   4.441255559376022E-05   4.610003475886274E-05   4.785137752473665E-05
   4.966898451818116E-05   5.155534555023111E-05   5.351304286095967E-05
   5.554475447786254E-05   5.765325769150890E-05   5.984143265223777E-05
   6.211226609177237E-05   6.446885517374282E-05   6.691441147718759E-05
   6.945226511722753E-05   7.208586900719814E-05   7.481880326663226E-05
   7.765477977958811E-05   8.059764690792968E-05   8.365139436425774E-05
   8.682015824930587E-05   9.010822625871054E-05   9.352004306416913E-05
   9.706021587410055E-05   1.007335201790224E-04   1.045449056869509E-04
   1.084995024542287E-04   1.126026272172781E-04   1.168597899308491E-04
   1.212767005184434E-04   1.258592758406393E-04   1.306136468871470E-04
   1.355461661984651E-04   1.406634155230847E-04   1.459722137162327E-04
   1.514796248861933E-04   1.571929667942727E-04   1.631198195145065E-04
   1.692680343592045E-04   1.756457430764511E-04   1.822613673256325E-04
   1.891236284370593E-04   1.962415574616873E-04   2.036245055168758E-04
   2.112821544340447E-04   2.192245277139723E-04   2.274620017953472E-04
   2.360053176420332E-04   2.448655926543077E-04   2.540543329091355E-04
   2.635834457342765E-04   2.734652526207367E-04   2.837125024777754E-04
   2.943383852342722E-04   3.053565457898991E-04   3.167810983190520E-04
   3.286266409299961E-04   3.409082706811279E-04   3.536415989556183E-04
   3.668427671950374E-04   3.805284629917886E-04   3.947159365393637E-04
   4.094230174385423E-04   4.246681318566374E-04   4.404703200358606E-04
   4.568492541456799E-04   4.738252564727834E-04   4.914193179408977E-04
   5.096531169511909E-04   5.285490385324251E-04   5.481301937882255E-04
   5.684204396270049E-04   5.894443987580270E-04   6.112274799349091E-04
   6.337958984255583E-04   6.571766966849610E-04   6.813977652045883E-04
   7.064878635092550E-04   7.324766412691547E-04   7.593946594915092E-04
   7.872734117526556E-04   8.161453454276356E-04   8.460438828702767E-04
   8.770034424924009E-04   9.090594596862221E-04   9.422484075290376E-04
   9.766078172040752E-04   1.012176298065832E-03   1.048993557272234E-03
   1.087100418899767E-03   1.126538842450929E-03   1.167351940656382E-03
   1.209583996466610E-03   1.253280479119942E-03   1.298488059165459E-03
   1.345254622310321E-03   1.393629281951742E-03   1.443662390243871E-03
   1.495405547539398E-03   1.548911610034700E-03   1.604234695435730E-03
   1.661430186449621E-03   1.720554731894202E-03   1.781666245204047E-03
   1.844823900097695E-03   1.910088123155686E-03   1.977520583043688E-03
   2.047184176098680E-03   2.119143007979182E-03   2.193462371062944E-03
   2.270208717256909E-03   2.349449625865155E-03   2.431253766140572E-03
   2.515690854125165E-03   2.602831603362589E-03   2.692747669044092E-03
   2.785511585126156E-03   2.881196693934418E-03   2.979877067743921E-03
   3.081627421800870E-03   3.186523018225153E-03   3.294639560206692E-03
   3.406053075881875E-03   3.520839791248891E-03   3.639075991453354E-03
   3.760837869747425E-03   3.886201363397579E-03   4.015241975788058E-03
   4.148034583938615E-03   4.284653230627720E-03   4.425170900284470E-03
   4.569659277785810E-03   4.718188489269640E-03   4.870826824049183E-03
   5.027640436690762E-03   5.188693028294833E-03   5.354045506000387E-03
   5.523755619715282E-03   5.697877575060003E-03   5.876461621501364E-03
   6.059553614644239E-03   6.247194551646266E-03   6.439420078721724E-03
   6.636259969707263E-03   6.837737574675730E-03   7.043869237603618E-03
   7.254663682125725E-03   7.470121364446658E-03   7.690233792524469E-03
   7.914982810698403E-03   8.144339849000185E-03   8.378265136469122E-03
   8.616706877886054E-03   8.859600393450576E-03   9.106867221053132E-03
   9.358414180937427E-03   9.614132402713225E-03   9.873896314864804E-03
   1.013756259710820E-02   1.040496909618377E-02   1.067593370592922E-02
   1.095025321276586E-02   1.122770210804861E-02   1.150803136907986E-02
   1.179096721097129E-02   1.207620981195792E-02   1.236343201522674E-02
   1.265227801082088E-02   1.294236200172070E-02   1.323326685878811E-02
   1.352454276989040E-02   1.381570588919849E-02   1.410623699338112E-02
   1.439558015219380E-02   1.468314142179077E-02   1.496828756996832E-02
   1.525034484348171E-02   1.552859778856354E-02   1.580228813680862E-02
   1.607061376967929E-02   1.633272777602079E-02   1.658773761815997E-02
   1.683470442338501E-02   1.707264241886712E-02   1.730051852937976E-02
   1.751725215849097E-02   1.772171517524067E-02   1.791273212965778E-02
   1.808908072180972E-02   1.824949255039597E-02   1.839265416818145E-02
   1.851720847279795E-02   1.862175646260066E-02   1.870485938833061E-02
   1.876504133227621E-02   1.880079224741869E-02   1.881057148965737E-02
   1.879281187660380E-02   1.874592430657279E-02   1.866830297124020E-02
   1.855833119493697E-02   1.841438793265758E-02   1.823485495752635E-02
   1.801812476663156E-02   1.776260923174403E-02   1.746674901842560E-02
   1.712902379333453E-02   1.674796323508429E-02   1.632215885874446E-02
   1.585027665790829E-02   1.533107056113618E-02   1.476339669143510E-02
   1.414622840819444E-02   1.347867210060819E-02   1.275998369000584E-02
   1.198958578565887E-02   1.116708542447235E-02   1.029229230949841E-02
   9.365237445413992E-03   8.386192050985498E-03   7.355686609157622E-03
   6.274529894788728E-03   5.143827798320559E-03   3.965001740947594E-03
   2.739806453291500E-03   1.470346865439408E-03   1.590938317080366E-04
  -1.191101611003142E-03  -2.576995776517090E-03  -3.994942002876227E-03
  -5.440882836458700E-03  -6.910345117071713E-03  -8.398438371631015E-03
  -9.899856937834949E-03  -1.140888624875178E-02  -1.291941371347687E-02
  -1.442494462699377E-02  -1.591862353296040E-02  -1.739326144516381E-02
  -1.884136930564095E-02  -2.025519801862995E-02  -2.162678534835166E-02
  -2.294800990380507E-02  -2.421065235404962E-02  -2.540646392169452E-02
  -2.652724208943482E-02  -2.756491332363764E-02  -2.851162246953963E-02
  -2.935982830425638E-02  -3.010240454662247E-02  -3.073274541740519E-02
  -3.124487462082536E-02  -3.163355638036414E-02  -3.189440691112647E-02
  -3.202400445106225E-02  -3.201999570857603E-02  -3.188119632008761E-02
  -3.160768265471268E-02  -3.120087206248861E-02  -3.066358844688576E-02
  -3.000010986250996E-02  -2.921619470707140E-02  -2.831908300634905E-02
  -2.731746929669927E-02  -2.622144370733170E-02  -2.504239805057402E-02
  -2.379289405948815E-02  -2.248649138523949E-02  -2.113753359762243E-02
  -1.976089123571912E-02  -1.837166194419149E-02  -1.698482891316721E-02
  -1.561488022064608E-02  -1.427539325459186E-02  -1.297859015891293E-02
  -1.173487218625134E-02  -1.055234292337803E-02  -9.436332542709459E-03
  -8.388937473270838E-03  -7.408592108815674E-03  -6.491540882498925E-03
  -5.638360833010225E-03  -4.850507849752050E-03  -4.128765575857674E-03
  -3.473242790486053E-03  -2.883379801423946E-03  -2.357964282831360E-03
  -1.895156866912523E-03  -1.492526650499926E-03  -1.147096607845566E-03
  -8.553987091168003E-04  -6.135383309509579E-04  -4.172673117756320E-04
  -2.620647520351349E-04  -1.432243903866925E-04  -5.594710404838166E-05
   4.563211178587601E-06   4.300242342353267E-05   6.386995131482665E-05
   7.137688127926978E-05   6.936165116359916E-05   6.121171146433735E-05
   4.979676790071996E-05   3.742545813872900E-05   2.581764402442843E-05
   1.610232542237355E-05   8.842872468675655E-06   4.093464068731512E-06
   1.489918921994404E-06   3.777302951986361E-07   3.766230237053914E-08
  -1.734723475976807E-18   0.000000000000000E+00   0.000000000000000E+00
   0.000000000000000E+00   0.000000000000000E+00   0.000000000000000E+00
   0.000000000000000E+00   0.000000000000000E+00   0.000000000000000E+00
   0.000000000000000E+00   0.000000000000000E+00   0.000000000000000E+00
   0.000000000000000E+00   0.000000000000000E+00   0.000000000000000E+00
   0.000000000000000E+00   0.000000000000000E+00   0.000000000000000E+00
   0.000000000000000E+00   0.000000000000000E+00   0.000000000000000E+00
   0.000000000000000E+00   0.000000000000000E+00   0.000000000000000E+00
   0.000000000000000E+00   0.000000000000000E+00   0.000000000000000E+00
   0.000000000000000E+00   0.000000000000000E+00   0.000000000000000E+00
   0.000000000000000E+00   0.000000000000000E+00   0.000000000000000E+00
   0.000000000000000E+00   0.000000000000000E+00   0.000000000000000E+00
   0.000000000000000E+00   0.000000000000000E+00   0.000000000000000E+00
   0.000000000000000E+00   0.000000000000000E+00   0.000000000000000E+00
   0.000000000000000E+00   0.000000000000000E+00   0.000000000000000E+00
   0.000000000000000E+00   0.000000000000000E+00   0.000000000000000E+00
   0.000000000000000E+00   0.000000000000000E+00   0.000000000000000E+00
   0.000000000000000E+00   0.000000000000000E+00   0.000000000000000E+00
   0.000000000000000E+00   0.000000000000000E+00   0.000000000000000E+00
   0.000000000000000E+00   0.000000000000000E+00   0.000000000000000E+00
   0.000000000000000E+00   0.000000000000000E+00   0.000000000000000E+00
   0.000000000000000E+00   0.000000000000000E+00   0.000000000000000E+00
   0.000000000000000E+00   0.000000000000000E+00   0.000000000000000E+00
   0.000000000000000E+00   0.000000000000000E+00   0.000000000000000E+00
   0.000000000000000E+00   0.000000000000000E+00   0.000000000000000E+00
   0.000000000000000E+00   0.000000000000000E+00   0.000000000000000E+00
   0.000000000000000E+00   0.000000000000000E+00   0.000000000000000E+00
   0.000000000000000E+00   0.000000000000000E+00   0.000000000000000E+00
   0.000000000000000E+00   0.000000000000000E+00   0.000000000000000E+00
   0.000000000000000E+00   0.000000000000000E+00   0.000000000000000E+00
   0.000000000000000E+00   0.000000000000000E+00   0.000000000000000E+00
   0.000000000000000E+00   0.000000000000000E+00   0.000000000000000E+00
   0.000000000000000E+00   0.000000000000000E+00   0.000000000000000E+00
   0.000000000000000E+00   0.000000000000000E+00   0.000000000000000E+00
   0.000000000000000E+00   0.000000000000000E+00   0.000000000000000E+00
   0.000000000000000E+00   0.000000000000000E+00   0.000000000000000E+00
   0.000000000000000E+00   0.000000000000000E+00   0.000000000000000E+00
   0.000000000000000E+00   0.000000000000000E+00   0.000000000000000E+00
   0.000000000000000E+00   0.000000000000000E+00   0.000000000000000E+00
   0.000000000000000E+00   0.000000000000000E+00   0.000000000000000E+00
   0.000000000000000E+00   0.000000000000000E+00   0.000000000000000E+00
   0.000000000000000E+00   0.000000000000000E+00   0.000000000000000E+00
   0.000000000000000E+00   0.000000000000000E+00   0.000000000000000E+00
   0.000000000000000E+00   0.000000000000000E+00   0.000000000000000E+00
   0.000000000000000E+00   0.000000000000000E+00   0.000000000000000E+00
   0.000000000000000E+00   0.000000000000000E+00   0.000000000000000E+00
   0.000000000000000E+00   0.000000000000000E+00   0.000000000000000E+00
   0.000000000000000E+00   0.000000000000000E+00   0.000000000000000E+00
   0.000000000000000E+00   0.000000000000000E+00   0.000000000000000E+00
   0.000000000000000E+00   0.000000000000000E+00   0.000000000000000E+00
   0.000000000000000E+00   0.000000000000000E+00   0.000000000000000E+00
   0.000000000000000E+00   0.000000000000000E+00   0.000000000000000E+00
   0.000000000000000E+00   0.000000000000000E+00   0.000000000000000E+00
   0.000000000000000E+00   0.000000000000000E+00   0.000000000000000E+00
   0.000000000000000E+00   0.000000000000000E+00   0.000000000000000E+00
   0.000000000000000E+00   0.000000000000000E+00   0.000000000000000E+00
   0.000000000000000E+00   0.000000000000000E+00   0.000000000000000E+00
   0.000000000000000E+00   0.000000000000000E+00   0.000000000000000E+00
   0.000000000000000E+00   0.000000000000000E+00   0.000000000000000E+00
   0.000000000000000E+00   0.000000000000000E+00   0.000000000000000E+00
   0.000000000000000E+00   0.000000000000000E+00   0.000000000000000E+00
   0.000000000000000E+00   0.000000000000000E+00   0.000000000000000E+00
   0.000000000000000E+00   0.000000000000000E+00   0.000000000000000E+00
   0.000000000000000E+00   0.000000000000000E+00   0.000000000000000E+00
   0.000000000000000E+00   0.000000000000000E+00   0.000000000000000E+00
   0.000000000000000E+00   0.000000000000000E+00   0.000000000000000E+00
   0.000000000000000E+00   0.000000000000000E+00   0.000000000000000E+00
   0.000000000000000E+00   0.000000000000000E+00   0.000000000000000E+00
   0.000000000000000E+00   0.000000000000000E+00   0.000000000000000E+00
   0.000000000000000E+00   0.000000000000000E+00   0.000000000000000E+00
   0.000000000000000E+00   0.000000000000000E+00   0.000000000000000E+00
   0.000000000000000E+00   0.000000000000000E+00   0.000000000000000E+00
   0.000000000000000E+00   0.000000000000000E+00   0.000000000000000E+00
   0.000000000000000E+00   0.000000000000000E+00   0.000000000000000E+00
   0.000000000000000E+00   0.000000000000000E+00   0.000000000000000E+00
   0.000000000000000E+00   0.000000000000000E+00   0.000000000000000E+00
   0.000000000000000E+00   0.000000000000000E+00   0.000000000000000E+00
   0.000000000000000E+00   0.000000000000000E+00   0.000000000000000E+00
   0.000000000000000E+00   0.000000000000000E+00   0.000000000000000E+00
   0.000000000000000E+00   0.000000000000000E+00   0.000000000000000E+00
   0.000000000000000E+00   0.000000000000000E+00   0.000000000000000E+00
   0.000000000000000E+00   0.000000000000000E+00   0.000000000000000E+00
   0.000000000000000E+00   0.000000000000000E+00   0.000000000000000E+00
   0.000000000000000E+00   0.000000000000000E+00   0.000000000000000E+00
   0.000000000000000E+00   0.000000000000000E+00   0.000000000000000E+00
   0.000000000000000E+00   0.000000000000000E+00   0.000000000000000E+00
   0.000000000000000E+00   0.000000000000000E+00   0.000000000000000E+00
   0.000000000000000E+00   0.000000000000000E+00   0.000000000000000E+00
   0.000000000000000E+00   0.000000000000000E+00   0.000000000000000E+00
   0.000000000000000E+00   0.000000000000000E+00   0.000000000000000E+00
   0.000000000000000E+00   0.000000000000000E+00   0.000000000000000E+00
   0.000000000000000E+00   0.000000000000000E+00   0.000000000000000E+00
   0.000000000000000E+00   0.000000000000000E+00   0.000000000000000E+00
   0.000000000000000E+00   0.000000000000000E+00   0.000000000000000E+00
   0.000000000000000E+00   0.000000000000000E+00   0.000000000000000E+00
   0.000000000000000E+00   0.000000000000000E+00   0.000000000000000E+00
   0.000000000000000E+00   0.000000000000000E+00   0.000000000000000E+00
   0.000000000000000E+00   0.000000000000000E+00   0.000000000000000E+00
   0.000000000000000E+00   0.000000000000000E+00   0.000000000000000E+00
   0.000000000000000E+00   0.000000000000000E+00   0.000000000000000E+00
   0.000000000000000E+00   0.000000000000000E+00   0.000000000000000E+00
   0.000000000000000E+00   0.000000000000000E+00   0.000000000000000E+00
   0.000000000000000E+00   0.000000000000000E+00   0.000000000000000E+00
   0.000000000000000E+00   0.000000000000000E+00   0.000000000000000E+00
   0.000000000000000E+00   0.000000000000000E+00   0.000000000000000E+00
   0.000000000000000E+00   0.000000000000000E+00   0.000000000000000E+00
   0.000000000000000E+00   0.000000000000000E+00   0.000000000000000E+00
   0.000000000000000E+00   0.000000000000000E+00   0.000000000000000E+00
   0.000000000000000E+00   0.000000000000000E+00   0.000000000000000E+00
   0.000000000000000E+00   0.000000000000000E+00   0.000000000000000E+00
   0.000000000000000E+00   0.000000000000000E+00   0.000000000000000E+00
   0.000000000000000E+00   0.000000000000000E+00   0.000000000000000E+00
   0.000000000000000E+00   0.000000000000000E+00   0.000000000000000E+00
   0.000000000000000E+00   0.000000000000000E+00   0.000000000000000E+00
   0.000000000000000E+00   0.000000000000000E+00   0.000000000000000E+00
      </PP_QIJL.2.4.1>
      <PP_QIJL.3.3.0 first_index="3" second_index="3" composite_index="6" angular_momentum="0" size="1095">
   2.549533983013227E-08   2.614075742981033E-08   2.680251385376500E-08
   2.748102272129957E-08   2.817670812253984E-08   2.889000488350402E-08
   2.962135883788326E-08   3.037122710570222E-08   3.114007837903382E-08
   3.192839321494733E-08   3.273666433587185E-08   3.356539693756396E-08
   3.441510900487156E-08   3.528633163549111E-08   3.617960937192134E-08
   3.709550054181944E-08   3.803457760697444E-08   3.899742752111431E-08
   3.998465209677102E-08   4.099686838143332E-08   4.203470904322096E-08
   4.309882276632324E-08   4.418987465644748E-08   4.530854665653188E-08
   4.645553797298209E-08   4.763156551269761E-08   4.883736433116227E-08
   5.007368809187761E-08   5.134130953742704E-08   5.264102097246550E-08
   5.397363475893493E-08   5.533998382381741E-08   5.674092217974144E-08
   5.817732545876750E-08   5.965009145968696E-08   6.116014070917491E-08
   6.270841703714961E-08   6.429588816669678E-08   6.592354631892803E-08
   6.759240883315148E-08   6.930351880274131E-08   7.105794572710567E-08
   7.285678618015814E-08   7.470116449571210E-08   7.659223347022646E-08
   7.853117508334001E-08   8.051920123664763E-08   8.255755451117804E-08
   8.464750894404730E-08   8.679037082477376E-08   8.898747951175070E-08
   9.124020826938937E-08   9.354996512645377E-08   9.591819375612401E-08
   9.834637437833988E-08   1.008360246849852E-07   1.033887007884950E-07
   1.060059981944768E-07   1.086895527989524E-07   1.114410419108474E-07
   1.142621853003622E-07   1.171547462738853E-07   1.201205327761166E-07
   1.231613985200913E-07   1.262792441458117E-07   1.294760184082074E-07
   1.327537193951714E-07   1.361143957764298E-07   1.395601480840261E-07
   1.430931300252232E-07   1.467155498286390E-07   1.504296716244613E-07
   1.542378168596033E-07   1.581423657486817E-07   1.621457587617301E-07
   1.662504981495701E-07   1.704591495077996E-07   1.747743433803739E-07
   1.791987769037799E-07   1.837352154928356E-07   1.883864945691617E-07
   1.931555213334132E-07   1.980452765823739E-07   2.030588165720512E-07
   2.081992749279348E-07   2.134698646036140E-07   2.188738798889776E-07
   2.244146984692523E-07   2.300957835361646E-07   2.359206859525493E-07
   2.418930464717514E-07   2.480165980132161E-07   2.542951679956843E-07
   2.607326807294523E-07   2.673331598691944E-07   2.741007309288749E-07
   2.810396238603291E-07   2.881541756971198E-07   2.954488332653226E-07
   3.029281559629386E-07   3.105968186096614E-07   3.184596143687939E-07
   3.265214577431278E-07   3.347873876466672E-07   3.432625705541153E-07
   3.519523037300830E-07   3.608620185400535E-07   3.699972838451603E-07
   3.793638094829037E-07   3.889674498359871E-07   3.988142074914900E-07
   4.089102369926818E-07   4.192618486858084E-07   4.298755126642618E-07
   4.407578628125991E-07   4.519157009529299E-07   4.633560010962776E-07
   4.750859138015587E-07   4.871127706449126E-07   4.994440888021752E-07
   5.120875757473502E-07   5.250511340700327E-07   5.383428664147789E-07
   5.519710805455198E-07   5.659442945381840E-07   5.802712421047624E-07
   5.949608780521619E-07   6.100223838792474E-07   6.254651735155709E-07
   6.412988992053835E-07   6.575334575405911E-07   6.741789956464461E-07
   6.912459175238228E-07   7.087448905520517E-07   7.266868521563766E-07
   7.450830166441879E-07   7.639448822143279E-07   7.832842381438308E-07
   8.031131721565973E-07   8.234440779786111E-07   8.442896630844061E-07
   8.656629566396491E-07   8.875773176447798E-07   9.100464432848131E-07
   9.330843774905185E-07   9.567055197163170E-07   9.809246339404015E-07
   1.005756857892694E-06   1.031217712516402E-06   1.057323111669109E-06
   1.084089372069432E-06   1.111533223495489E-06   1.139671819241545E-06
   1.168522746839355E-06   1.198104039050943E-06   1.228434185139626E-06
   1.259532142426406E-06   1.291417348138885E-06   1.324109731560142E-06
   1.357629726485179E-06   1.391998283992661E-06   1.427236885540021E-06
   1.463367556390030E-06   1.500412879377286E-06   1.538396009023198E-06
   1.577340686008267E-06   1.617271252010782E-06   1.658212664921109E-06
   1.700190514441154E-06   1.743231038078744E-06   1.787361137546853E-06
   1.832608395578046E-06   1.879001093164519E-06   1.926568227234603E-06
   1.975339528776762E-06   2.025345481422339E-06   2.076617340498822E-06
   2.129187152565348E-06   2.183087775442804E-06   2.238352898750996E-06
   2.295017064965651E-06   2.353115691008584E-06   2.412685090384316E-06
   2.473762495877140E-06   2.536386082822770E-06   2.600594992969038E-06
   2.666429358940745E-06   2.733930329323728E-06   2.803140094383979E-06
   2.874101912437876E-06   2.946860136889875E-06   3.021460243954799E-06
   3.097948861081784E-06   3.176373796097870E-06   3.256784067089330E-06
   3.339229933039402E-06   3.423762925241712E-06   3.510435879508826E-06
   3.599302969196212E-06   3.690419739062231E-06   3.783843139985178E-06
   3.879631564559354E-06   3.977844883592086E-06   4.078544483524765E-06
   4.181793304801200E-06   4.287655881207155E-06   4.396198380205941E-06
   4.507488644294925E-06   4.621596233409079E-06   4.738592468397990E-06
   4.858550475603339E-06   4.981545232565082E-06   5.107653614884461E-06
   5.236954444273478E-06   5.369528537820730E-06   5.505458758504286E-06
   5.644830066983490E-06   5.787729574701667E-06   5.934246598333239E-06
   6.084472715609165E-06   6.238501822555453E-06   6.396430192180905E-06
   6.558356534650269E-06   6.724382058980827E-06   6.894610536300839E-06
   7.069148364709157E-06   7.248104635777069E-06   7.431591202733327E-06
   7.619722750375412E-06   7.812616866750640E-06   8.010394116651637E-06
   8.213178116972652E-06   8.421095613973193E-06   8.634276562497750E-06
   8.852854207200980E-06   9.076965165828819E-06   9.306749514608265E-06
   9.542350875798322E-06   9.783916507457598E-06   1.003159739548426E-05
   1.028554834798574E-05   1.054592809203781E-05   1.081289937289264E-05
   1.108662905569850E-05   1.136728822979451E-05   1.165505231564536E-05
   1.195010117448328E-05   1.225261922072535E-05   1.256279553723671E-05
   1.288082399351167E-05   1.320690336684633E-05   1.354123746657887E-05
   1.388403526147469E-05   1.423551101033639E-05   1.459588439592011E-05
   1.496538066224172E-05   1.534423075535903E-05   1.573267146771765E-05
   1.613094558615105E-05   1.653930204362707E-05   1.695799607483578E-05
   1.738728937571601E-05   1.782745026702010E-05   1.827875386201932E-05
   1.874148223845457E-05   1.921592461483978E-05   1.970237753122852E-05
   2.020114503455643E-05   2.071253886867543E-05   2.123687866919873E-05
   2.177449216327779E-05   2.232571537443687E-05   2.289089283259251E-05
   2.347037778938954E-05   2.406453243898830E-05   2.467372814444052E-05
   2.529834566979612E-05   2.593877541808515E-05   2.659541767532423E-05
   2.726868286069987E-05   2.795899178308450E-05   2.866677590404643E-05
   2.939247760751713E-05   3.013655047628512E-05   3.089945957548900E-05
   3.168168174328639E-05   3.248370588888129E-05   3.330603329809513E-05
   3.414917794667323E-05   3.501366682152221E-05   3.590004025007872E-05
   3.680885223801615E-05   3.774067081549937E-05   3.869607839220467E-05
   3.967567212132657E-05   4.068006427279843E-05   4.170988261596097E-05
   4.276577081191698E-05   4.384838881581812E-05   4.495841328933474E-05
   4.609653802356642E-05   4.726347437265803E-05   4.845995169839153E-05
   4.968671782603189E-05   5.094453951171196E-05   5.223420292164775E-05
   5.355651412348436E-05   5.491229959007892E-05   5.630240671603578E-05
   5.772770434731665E-05   5.918908332425602E-05   6.068745703832229E-05
   6.222376200297125E-05   6.379895843894942E-05   6.541403087441299E-05
   6.706998876023629E-05   6.876786710089606E-05   7.050872710132350E-05
   7.229365683013020E-05   7.412377189962142E-05   7.600021616302104E-05
   7.792416242934540E-05   7.989681319637072E-05   8.191940140215369E-05
   8.399319119557343E-05   8.611947872637807E-05   8.829959295522620E-05
   9.053489648423334E-05   9.282678640853907E-05   9.517669518942851E-05
   9.758609154955344E-05   1.000564813908106E-04   1.025894087354534E-04
   1.051864566910229E-04   1.078492484397006E-04   1.105794482527041E-04
   1.133787625303534E-04   1.162489408684645E-04   1.191917771517307E-04
   1.222091106747780E-04   1.253028272915939E-04   1.284748605940450E-04
   1.317271931202247E-04   1.350618575933805E-04   1.384809381921978E-04
   1.419865718532333E-04   1.455809496063081E-04   1.492663179437003E-04
   1.530449802239865E-04   1.569192981114124E-04   1.608916930516907E-04
   1.649646477851448E-04   1.691407078981490E-04   1.734224834138281E-04
   1.778126504230136E-04   1.823139527564727E-04   1.869292036994543E-04
   1.916612877496239E-04   1.965131624194837E-04   2.014878600844020E-04
   2.065884898774103E-04   2.118182396319423E-04   2.171803778737376E-04
   2.226782558631458E-04   2.283153096891087E-04   2.340950624161296E-04
   2.400211262855627E-04   2.460972049726060E-04   2.523270959003974E-04
   2.587146926126644E-04   2.652639872064051E-04   2.719790728261158E-04
   2.788641462211283E-04   2.859235103676455E-04   2.931615771571151E-04
   3.005828701526190E-04   3.081920274149912E-04   3.159938044004369E-04
   3.239930769314526E-04   3.321948442429024E-04   3.406042321051528E-04
   3.492264960262050E-04   3.580670245348331E-04   3.671313425467659E-04
   3.764251148160148E-04   3.859541494734979E-04   3.957244016551698E-04
   4.057419772219085E-04   4.160131365734903E-04   4.265442985590207E-04
   4.373420444862600E-04   4.484131222323446E-04   4.597644504584562E-04
   4.714031229310746E-04   4.833364129524988E-04   4.955717779033960E-04
   5.081168639002121E-04   5.209795105703299E-04   5.341677559479656E-04
   5.476898414938371E-04   5.615542172417310E-04   5.757695470751769E-04
   5.903447141374967E-04   6.052888263786132E-04   6.206112222420500E-04
   6.363214764956704E-04   6.524294062097768E-04   6.689450768862765E-04
   6.858788087427409E-04   7.032411831552471E-04   7.210430492640076E-04
   7.392955307458992E-04   7.580100327580739E-04   7.771982490569864E-04
   7.968721692972420E-04   8.170440865147924E-04   8.377266047991280E-04
   8.589326471592116E-04   8.806754635880408E-04   9.029686393308286E-04
   9.258261033619262E-04   9.492621370757387E-04   9.732913831970010E-04
   9.979288549159448E-04   1.023189945253997E-03   1.049090436665791E-03
   1.075646510883454E-03   1.102874759009199E-03   1.130792191862518E-03
   1.159416250588299E-03   1.188764817532455E-03   1.218856227391754E-03
   1.249709278644694E-03   1.281343245270514E-03   1.313777888763503E-03
   1.347033470450022E-03   1.381130764115811E-03   1.416091068951299E-03
   1.451936222822924E-03   1.488688615878542E-03   1.526371204495293E-03
   1.565007525578465E-03   1.604621711220069E-03   1.645238503726141E-03
   1.686883271021881E-03   1.729582022444082E-03   1.773361424930441E-03
   1.818248819615598E-03   1.864272238844023E-03   1.911460423610062E-03
   1.959842841435710E-03   2.009449704696989E-03   2.060311989409920E-03
   2.112461454487550E-03   2.165930661479565E-03   2.220752994806398E-03
   2.276962682500035E-03   2.334594817463874E-03   2.393685379264479E-03
   2.454271256468185E-03   2.516390269535902E-03   2.580081194289778E-03
   2.645383785965591E-03   2.712338803865226E-03   2.780988036623732E-03
   2.851374328105901E-03   2.923541603947617E-03   2.997534898757477E-03
   3.073400383994691E-03   3.151185396539434E-03   3.230938467972308E-03
   3.312709354579851E-03   3.396549068103389E-03   3.482509907248964E-03
   3.570645489976352E-03   3.661010786585563E-03   3.753662153619692E-03
   3.848657368603143E-03   3.946055665634930E-03   4.045917771856847E-03
   4.148305944816843E-03   4.253284010748334E-03   4.360917403786364E-03
   4.471273206142231E-03   4.584420189258266E-03   4.700428855964958E-03
   4.819371483663105E-03   4.941322168553687E-03   5.066356870939017E-03
   5.194553461618598E-03   5.325991769403751E-03   5.460753629775434E-03
   5.598922934709627E-03   5.740585683695577E-03   5.885830035971911E-03
   6.034746364006254E-03   6.187427308244174E-03   6.343967833153345E-03
   6.504465284589374E-03   6.669019448509594E-03   6.837732611061439E-03
   7.010709620072195E-03   7.188057947966767E-03   7.369887756140513E-03
   7.556311960813884E-03   7.747446300395639E-03   7.943409404381528E-03
   8.144322863814658E-03   8.350311303334225E-03   8.561502454838379E-03
   8.778027232786940E-03   9.000019811169220E-03   9.227617702161369E-03
   9.460961836497543E-03   9.700196645577820E-03   9.945470145335353E-03
   1.019693402188417E-02   1.045474371896751E-02   1.071905852722595E-02
   1.099004167530256E-02   1.126786042280084E-02   1.155268615510972E-02
   1.184469448010698E-02   1.214406532675149E-02   1.245098304557099E-02
   1.276563651104993E-02   1.308821922591907E-02   1.341892942734446E-02
   1.375797019501073E-02   1.410554956108882E-02   1.446188062207433E-02
   1.482718165247792E-02   1.520167622034345E-02   1.558559330456483E-02
   1.597916741396551E-02   1.638263870809818E-02   1.679625311971524E-02
   1.722026247885198E-02   1.765492463845686E-02   1.810050360149317E-02
   1.855726964942677E-02   1.902549947200394E-02   1.950547629821075E-02
   1.999749002829456E-02   2.050183736671269E-02   2.101882195585992E-02
   2.154875451041050E-02   2.209195295209267E-02   2.264874254469669E-02
   2.321945602909656E-02   2.380443375804510E-02   2.440402383047963E-02
   2.501858222505019E-02   2.564847293255784E-02   2.629406808696080E-02
   2.695574809457772E-02   2.763390176108469E-02   2.832892641586783E-02
   2.904122803325799E-02   2.977122135013359E-02   3.051932997933601E-02
   3.128598651829825E-02   3.207163265223763E-02   3.287671925121520E-02
   3.370170646030791E-02   3.454706378208283E-02   3.541327015050143E-02
   3.630081399531485E-02   3.721019329594405E-02   3.814191562376203E-02
   3.909649817161801E-02   4.007446776936064E-02   4.107636088402638E-02
   4.210272360326871E-02   4.315411160050155E-02   4.423109008012669E-02
   4.533423370110393E-02   4.646412647700335E-02   4.762136165055830E-02
   4.880654154060392E-02   5.002027735914943E-02   5.126318899618854E-02
   5.253590476969642E-02   5.383906113810612E-02   5.517330237238501E-02
   5.653928018465819E-02   5.793765331014062E-02   5.936908703894612E-02
   6.083425269414270E-02   6.233382705221163E-02   6.386849170185034E-02
   6.543893233683430E-02   6.704583797841479E-02   6.868990012249165E-02
   7.037181180654459E-02   7.209226659105165E-02   7.385195744985808E-02
   7.565157556368493E-02   7.749180901069441E-02   7.937334134774277E-02
   8.129685007566834E-02   8.326300498167515E-02   8.527246635158017E-02
   8.732588304440936E-02   8.942389042153637E-02   9.156710812228158E-02
   9.375613767761225E-02   9.599155995332123E-02   9.827393241381477E-02
   1.006037861974013E-01   1.029816229937644E-01   1.054079117141151E-01
   1.078830849443578E-01   1.104075351714917E-01   1.129816107733790E-01
   1.156056117619907E-01   1.182797852702596E-01   1.210043207727606E-01
   1.237793450306051E-01   1.266049167511744E-01   1.294810209536587E-01
   1.324075630318119E-01   1.353843625058853E-01   1.384111464563984E-01
   1.414875426332327E-01   1.446130722345283E-01   1.477871423510296E-01
   1.510090380728834E-01   1.542779142574695E-01   1.575927869586365E-01
   1.609525245197732E-01   1.643558383354669E-01   1.678012732891134E-01
   1.712871978767845E-01   1.748117940309276E-01   1.783730466611113E-01
   1.819687329330625E-01   1.855964113116777E-01   1.892534103985754E-01
   1.929368176000948E-01   1.966434676674762E-01   2.003699311572918E-01
   2.041125028670512E-01   2.078671903083288E-01   2.116297022877002E-01
   2.153954376743301E-01   2.191594744421607E-01   2.229165590843235E-01
   2.266610965076749E-01   2.303871405261462E-01   2.340883850829555E-01
   2.377581563435682E-01   2.413894058135660E-01   2.449747046482905E-01
   2.485062393340885E-01   2.519758089342114E-01   2.553748241057288E-01
   2.586943081070729E-01   2.619249000289275E-01   2.650568604938370E-01
   2.680800800820006E-01   2.709840907519361E-01   2.737580805347450E-01
   2.763909117893348E-01   2.788711433126839E-01   2.811870566037646E-01
   2.833266865815529E-01   2.852778570561650E-01   2.870282212470633E-01
   2.885653076328130E-01   2.898765714024676E-01   2.909494517585951E-01
   2.917714352955035E-01   2.923301256426390E-01   2.926133195215724E-01
   2.926090893146701E-01   2.923058721835851E-01   2.916925657052649E-01
   2.907586299114103E-01   2.894941955234079E-01   2.878901780679297E-01
   2.859383974379527E-01   2.836317023292985E-01   2.809640988334554E-01
   2.779308823031607E-01   2.745287714278835E-01   2.707560432621692E-01
   2.666126677413099E-01   2.621004399968198E-01   2.572231085501399E-01
   2.519864972186039E-01   2.463986183154511E-01   2.404697744686396E-01
   2.342126461251104E-01   2.276423615527212E-01   2.207765459066478E-01
   2.136353456971706E-01   2.062414247888750E-01   1.986199278857872E-01
   1.907984073226554E-01   1.828067088999713E-01   1.746768124813796E-01
   1.664426231297090E-01   1.581397087057000E-01   1.498049801065188E-01
   1.414763106944503E-01   1.331920919756599E-01   1.249907232504333E-01
   1.169100337851983E-01   1.089866370678433E-01   1.012552179143873E-01
   9.374775460824629E-02   8.649267988140966E-02   7.951398639408266E-02
   7.283028443551545E-02   6.645382184723370E-02   6.038947864724847E-02
   5.463375148800800E-02   4.917374587997080E-02   4.399342904494818E-02
   3.909771580040144E-02   3.449603489891429E-02   3.019577049724809E-02
   2.620215895159106E-02   2.251820416805106E-02   1.914461390361177E-02
   1.607975933342609E-02   1.331966008047369E-02   1.085799674242371E-02
   8.686152747998221E-03   6.793287132379811E-03   5.166439540512768E-03
   3.790668451886248E-03   2.649223275249413E-03   1.723750592267814E-03
   9.945344419586277E-04   4.407701403419395E-04   4.087072583081053E-05
  -2.271986821466010E-04  -3.855631271232340E-04  -4.560358514482665E-04
  -4.596808933808871E-04  -4.163868029000151E-04  -3.443983633367731E-04
  -2.598404714077018E-04  -1.762283346121718E-04  -1.039701530342052E-04
  -4.986683588581453E-05  -1.661418369480749E-05  -2.313790596342180E-06
   0.000000000000000E+00   0.000000000000000E+00   0.000000000000000E+00
   0.000000000000000E+00   0.000000000000000E+00   0.000000000000000E+00
   0.000000000000000E+00   0.000000000000000E+00   0.000000000000000E+00
   0.000000000000000E+00   0.000000000000000E+00   0.000000000000000E+00
   0.000000000000000E+00   0.000000000000000E+00   0.000000000000000E+00
   0.000000000000000E+00   0.000000000000000E+00   0.000000000000000E+00
   0.000000000000000E+00   0.000000000000000E+00   0.000000000000000E+00
   0.000000000000000E+00   0.000000000000000E+00   0.000000000000000E+00
   0.000000000000000E+00   0.000000000000000E+00   0.000000000000000E+00
   0.000000000000000E+00   0.000000000000000E+00   0.000000000000000E+00
   0.000000000000000E+00   0.000000000000000E+00   0.000000000000000E+00
   0.000000000000000E+00   0.000000000000000E+00   0.000000000000000E+00
   0.000000000000000E+00   0.000000000000000E+00   0.000000000000000E+00
   0.000000000000000E+00   0.000000000000000E+00   0.000000000000000E+00
   0.000000000000000E+00   0.000000000000000E+00   0.000000000000000E+00
   0.000000000000000E+00   0.000000000000000E+00   0.000000000000000E+00
   0.000000000000000E+00   0.000000000000000E+00   0.000000000000000E+00
   0.000000000000000E+00   0.000000000000000E+00   0.000000000000000E+00
   0.000000000000000E+00   0.000000000000000E+00   0.000000000000000E+00
   0.000000000000000E+00   0.000000000000000E+00   0.000000000000000E+00
   0.000000000000000E+00   0.000000000000000E+00   0.000000000000000E+00
   0.000000000000000E+00   0.000000000000000E+00   0.000000000000000E+00
   0.000000000000000E+00   0.000000000000000E+00   0.000000000000000E+00
   0.000000000000000E+00   0.000000000000000E+00   0.000000000000000E+00
   0.000000000000000E+00   0.000000000000000E+00   0.000000000000000E+00
   0.000000000000000E+00   0.000000000000000E+00   0.000000000000000E+00
   0.000000000000000E+00   0.000000000000000E+00   0.000000000000000E+00
   0.000000000000000E+00   0.000000000000000E+00   0.000000000000000E+00
   0.000000000000000E+00   0.000000000000000E+00   0.000000000000000E+00
   0.000000000000000E+00   0.000000000000000E+00   0.000000000000000E+00
   0.000000000000000E+00   0.000000000000000E+00   0.000000000000000E+00
   0.000000000000000E+00   0.000000000000000E+00   0.000000000000000E+00
   0.000000000000000E+00   0.000000000000000E+00   0.000000000000000E+00
   0.000000000000000E+00   0.000000000000000E+00   0.000000000000000E+00
   0.000000000000000E+00   0.000000000000000E+00   0.000000000000000E+00
   0.000000000000000E+00   0.000000000000000E+00   0.000000000000000E+00
   0.000000000000000E+00   0.000000000000000E+00   0.000000000000000E+00
   0.000000000000000E+00   0.000000000000000E+00   0.000000000000000E+00
   0.000000000000000E+00   0.000000000000000E+00   0.000000000000000E+00
   0.000000000000000E+00   0.000000000000000E+00   0.000000000000000E+00
   0.000000000000000E+00   0.000000000000000E+00   0.000000000000000E+00
   0.000000000000000E+00   0.000000000000000E+00   0.000000000000000E+00
   0.000000000000000E+00   0.000000000000000E+00   0.000000000000000E+00
   0.000000000000000E+00   0.000000000000000E+00   0.000000000000000E+00
   0.000000000000000E+00   0.000000000000000E+00   0.000000000000000E+00
   0.000000000000000E+00   0.000000000000000E+00   0.000000000000000E+00
   0.000000000000000E+00   0.000000000000000E+00   0.000000000000000E+00
   0.000000000000000E+00   0.000000000000000E+00   0.000000000000000E+00
   0.000000000000000E+00   0.000000000000000E+00   0.000000000000000E+00
   0.000000000000000E+00   0.000000000000000E+00   0.000000000000000E+00
   0.000000000000000E+00   0.000000000000000E+00   0.000000000000000E+00
   0.000000000000000E+00   0.000000000000000E+00   0.000000000000000E+00
   0.000000000000000E+00   0.000000000000000E+00   0.000000000000000E+00
   0.000000000000000E+00   0.000000000000000E+00   0.000000000000000E+00
   0.000000000000000E+00   0.000000000000000E+00   0.000000000000000E+00
   0.000000000000000E+00   0.000000000000000E+00   0.000000000000000E+00
   0.000000000000000E+00   0.000000000000000E+00   0.000000000000000E+00
   0.000000000000000E+00   0.000000000000000E+00   0.000000000000000E+00
   0.000000000000000E+00   0.000000000000000E+00   0.000000000000000E+00
   0.000000000000000E+00   0.000000000000000E+00   0.000000000000000E+00
   0.000000000000000E+00   0.000000000000000E+00   0.000000000000000E+00
   0.000000000000000E+00   0.000000000000000E+00   0.000000000000000E+00
   0.000000000000000E+00   0.000000000000000E+00   0.000000000000000E+00
   0.000000000000000E+00   0.000000000000000E+00   0.000000000000000E+00
   0.000000000000000E+00   0.000000000000000E+00   0.000000000000000E+00
   0.000000000000000E+00   0.000000000000000E+00   0.000000000000000E+00
   0.000000000000000E+00   0.000000000000000E+00   0.000000000000000E+00
   0.000000000000000E+00   0.000000000000000E+00   0.000000000000000E+00
   0.000000000000000E+00   0.000000000000000E+00   0.000000000000000E+00
   0.000000000000000E+00   0.000000000000000E+00   0.000000000000000E+00
   0.000000000000000E+00   0.000000000000000E+00   0.000000000000000E+00
   0.000000000000000E+00   0.000000000000000E+00   0.000000000000000E+00
   0.000000000000000E+00   0.000000000000000E+00   0.000000000000000E+00
   0.000000000000000E+00   0.000000000000000E+00   0.000000000000000E+00
   0.000000000000000E+00   0.000000000000000E+00   0.000000000000000E+00
   0.000000000000000E+00   0.000000000000000E+00   0.000000000000000E+00
   0.000000000000000E+00   0.000000000000000E+00   0.000000000000000E+00
   0.000000000000000E+00   0.000000000000000E+00   0.000000000000000E+00
   0.000000000000000E+00   0.000000000000000E+00   0.000000000000000E+00
   0.000000000000000E+00   0.000000000000000E+00   0.000000000000000E+00
   0.000000000000000E+00   0.000000000000000E+00   0.000000000000000E+00
   0.000000000000000E+00   0.000000000000000E+00   0.000000000000000E+00
   0.000000000000000E+00   0.000000000000000E+00   0.000000000000000E+00
   0.000000000000000E+00   0.000000000000000E+00   0.000000000000000E+00
   0.000000000000000E+00   0.000000000000000E+00   0.000000000000000E+00
   0.000000000000000E+00   0.000000000000000E+00   0.000000000000000E+00
   0.000000000000000E+00   0.000000000000000E+00   0.000000000000000E+00
   0.000000000000000E+00   0.000000000000000E+00   0.000000000000000E+00
   0.000000000000000E+00   0.000000000000000E+00   0.000000000000000E+00
   0.000000000000000E+00   0.000000000000000E+00   0.000000000000000E+00
   0.000000000000000E+00   0.000000000000000E+00   0.000000000000000E+00
   0.000000000000000E+00   0.000000000000000E+00   0.000000000000000E+00
   0.000000000000000E+00   0.000000000000000E+00   0.000000000000000E+00
   0.000000000000000E+00   0.000000000000000E+00   0.000000000000000E+00
   0.000000000000000E+00   0.000000000000000E+00   0.000000000000000E+00
   0.000000000000000E+00   0.000000000000000E+00   0.000000000000000E+00
   0.000000000000000E+00   0.000000000000000E+00   0.000000000000000E+00
   0.000000000000000E+00   0.000000000000000E+00   0.000000000000000E+00
   0.000000000000000E+00   0.000000000000000E+00   0.000000000000000E+00
   0.000000000000000E+00   0.000000000000000E+00   0.000000000000000E+00
   0.000000000000000E+00   0.000000000000000E+00   0.000000000000000E+00
   0.000000000000000E+00   0.000000000000000E+00   0.000000000000000E+00
   0.000000000000000E+00   0.000000000000000E+00   0.000000000000000E+00
   0.000000000000000E+00   0.000000000000000E+00   0.000000000000000E+00
   0.000000000000000E+00   0.000000000000000E+00   0.000000000000000E+00
   0.000000000000000E+00   0.000000000000000E+00   0.000000000000000E+00
   0.000000000000000E+00   0.000000000000000E+00   0.000000000000000E+00
   0.000000000000000E+00   0.000000000000000E+00   0.000000000000000E+00
   0.000000000000000E+00   0.000000000000000E+00   0.000000000000000E+00
   0.000000000000000E+00   0.000000000000000E+00   0.000000000000000E+00
   0.000000000000000E+00   0.000000000000000E+00   0.000000000000000E+00
   0.000000000000000E+00   0.000000000000000E+00   0.000000000000000E+00
   0.000000000000000E+00   0.000000000000000E+00   0.000000000000000E+00
   0.000000000000000E+00   0.000000000000000E+00   0.000000000000000E+00
   0.000000000000000E+00   0.000000000000000E+00   0.000000000000000E+00
      </PP_QIJL.3.3.0>
      <PP_QIJL.3.3.2 first_index="3" second_index="3" composite_index="6" angular_momentum="2" size="1095">
   3.945998920338555E-15   4.148314602783772E-15   4.361003231420072E-15
   4.584596638519748E-15   4.819653923974814E-15   5.066762853337363E-15
   5.326541327539094E-15   5.599638927964913E-15   5.886738540744058E-15
   6.188558064320543E-15   6.505852204572340E-15   6.839414361968443E-15
   7.190078615482451E-15   7.558721808223482E-15   7.946265739999803E-15
   8.353679472297235E-15   8.781981751436585E-15   9.232243555968816E-15
   9.705590774677872E-15   1.020320702188780E-14   1.072633659711329E-14
   1.127628759645503E-14   1.185443518351945E-14   1.246222502804207E-14
   1.310117692081287E-14   1.377288857394236E-14   1.447903961597180E-14
   1.522139579181672E-14   1.600181337804602E-14   1.682224382453749E-14
   1.768473863411526E-14   1.859145449237211E-14   1.954465866050292E-14
   2.054673464463438E-14   2.160018815582764E-14   2.270765337565588E-14
   2.387189954302537E-14   2.509583787870955E-14   2.638252886491119E-14
   2.773518989805590E-14   2.915720333395141E-14   3.065212494543184E-14
   3.222369281363346E-14   3.387583667513589E-14   3.561268774834130E-14
   3.743858906366146E-14   3.935810632334532E-14   4.137603931810087E-14
   4.349743392905913E-14   4.572759474509188E-14   4.807209832703133E-14
   5.053680715196131E-14   5.312788427244637E-14   5.585180872735433E-14
   5.871539174280922E-14   6.172579376378139E-14   6.489054235890719E-14
   6.821755104330630E-14   7.171513906646390E-14   7.539205221465973E-14
   7.925748467995620E-14   8.332110205043470E-14   8.759306547916355E-14
   9.208405709233373E-14   9.680530670009704E-14   1.017686198768935E-13
   1.069864074814881E-13   1.124717166905295E-13   1.182382636232288E-13
   1.243004676387430E-13   1.306734873920136E-13   1.373732587382302E-13
   1.444165345806909E-13   1.518209267617030E-13   1.596049501012745E-13
   1.677880686937082E-13   1.763907445778727E-13   1.854344889028459E-13
   1.949419157168696E-13   2.049367985141206E-13   2.154441296806852E-13
   2.264901829883924E-13   2.381025792927647E-13   2.503103555993662E-13
   2.631440376712546E-13   2.766357163590782E-13   2.908191278447013E-13
   3.057297379989901E-13   3.214048310647076E-13   3.378836028862660E-13
   3.552072589194513E-13   3.734191172662057E-13   3.925647169921002E-13
   4.126919319973424E-13   4.338510907260663E-13   4.560951020132142E-13
   4.794795873837221E-13   5.040630201347961E-13   5.299068715490680E-13
   5.570757646042421E-13   5.856376355635561E-13   6.156639038511535E-13
   6.472296506371057E-13   6.804138065786546E-13   7.152993491871235E-13
   7.519735103139834E-13   7.905279942749366E-13   8.310592071574016E-13
   8.736684978847943E-13   9.184624116403959E-13   9.655529562844538E-13
   1.015057882430743E-12   1.067100977882877E-12   1.121812377166616E-12
   1.179328886932177E-12   1.239794328040145E-12   1.303359895186455E-12
   1.370184534965624E-12   1.440435343317586E-12   1.514287983351963E-12
   1.591927124594486E-12   1.673546904753959E-12   1.759351415164359E-12
   1.849555211115929E-12   1.944383848351356E-12   2.044074447068457E-12
   2.148876284839773E-12   2.259051419931537E-12   2.374875346580687E-12
   2.496637683868415E-12   2.624642899912683E-12   2.759211073190683E-12
   2.900678692894768E-12   3.049399500323192E-12   3.205745373409556E-12
   3.370107256602561E-12   3.542896138421393E-12   3.724544079130957E-12
   3.915505291106650E-12   4.116257274590165E-12   4.327302011676039E-12
   4.549167221514731E-12   4.782407679870616E-12   5.027606606334464E-12
   5.285377122659102E-12   5.556363785864631E-12   5.841244199946834E-12
   6.140730710218670E-12   6.455572184521423E-12   6.786555885759547E-12
   7.134509440440991E-12   7.500302908145679E-12   7.884850957096405E-12
   8.289115151272155E-12   8.714106354782744E-12   9.160887259516345E-12
   9.630575042380729E-12   1.012434415878199E-11   1.064342927932581E-11
   1.118912837708444E-11   1.176280597314835E-11   1.236589654857858E-11
   1.299990813129040E-11   1.366642606683731E-11   1.436711698252419E-11
   1.510373295476032E-11   1.587811589007450E-11   1.669220213074407E-11
   1.754802729655576E-11   1.844773137480393E-11   1.939356407125243E-11
   2.038789043544188E-11   2.143319677440477E-11   2.253209686957756E-11
   2.368733851245351E-11   2.490181037531650E-11   2.617854923423877E-11
   2.752074756239825E-11   2.893176151270542E-11   3.041511930969750E-11
   3.197453007168160E-11   3.361389308518900E-11   3.533730755492526E-11
   3.714908285359831E-11   3.905374929725121E-11   4.105606947303955E-11
   4.316105014778220E-11   4.537395478705382E-11   4.770031671612625E-11
   5.014595295566397E-11   5.271697876676400E-11   5.541982294171484E-11
   5.826124387869641E-11   6.124834648062096E-11   6.438859992036325E-11
   6.768985631679572E-11   7.116037036833206E-11   7.480881999305842E-11
   7.864432802706574E-11   8.267648503523363E-11   8.691537329149159E-11
   9.137159198852866E-11   9.605628373996470E-11   1.009811624412591E-10
   1.061585425590097E-10   1.116013699218675E-10   1.173232540900645E-10
   1.233385023844675E-10   1.296621556602525E-10   1.363100259146347E-10
   1.432987358226738E-10   1.506457603000191E-10   1.583694701964856E-10
   1.664891782297205E-10   1.750251872737937E-10   1.839988411234325E-10
   1.934325778608413E-10   2.033499859584984E-10   2.137758632582193E-10
   2.247362789739301E-10   2.362586388731523E-10   2.483717538001884E-10
   2.611059117122807E-10   2.744929534088722E-10   2.885663521432816E-10
   3.033612973158112E-10   3.189147824575598E-10   3.352656977248540E-10
   3.524549271355663E-10   3.705254507904072E-10   3.895224523347081E-10
   4.094934319294046E-10   4.304883250135704E-10   4.525596271554552E-10
   4.757625253041249E-10   5.001550357697874E-10   5.257981492778116E-10
   5.527559834589654E-10   5.810959431571455E-10   6.108888889553153E-10
   6.422093143408991E-10   6.751355319536001E-10   7.097498693811015E-10
   7.461388749921919E-10   7.843935343217944E-10   8.246094975487978E-10
   8.668873186353470E-10   9.113327067253225E-10   9.580567904304514E-10
   1.007176395664657E-09   1.058814337721104E-09   1.113099728322053E-09
   1.170168298408959E-09   1.230162737479701E-09   1.293233050321071E-09
   1.359536932028183E-09   1.429240162248184E-09   1.502517019633573E-09
   1.579550717541114E-09   1.660533862065248E-09   1.745668933550800E-09
   1.835168792788473E-09   1.929257213158198E-09   2.028169440050365E-09
   2.132152778963021E-09   2.241467213744776E-09   2.356386056528592E-09
   2.477196630980603E-09   2.604200990571575E-09   2.737716673665944E-09
   2.878077497315395E-09   3.025634391740741E-09   3.180756277587298E-09
   3.343830988146044E-09   3.515266238844994E-09   3.695490646433367E-09
   3.884954800405332E-09   4.084132389340387E-09   4.293521384974886E-09
   4.513645286963241E-09   4.745054431438795E-09   4.988327366644143E-09
   5.244072299067588E-09   5.512928613699054E-09   5.795568471504971E-09
   6.092698493751151E-09   6.405061516288511E-09   6.733438466555233E-09
   7.078650294884565E-09   7.441560033827705E-09   7.823074962023818E-09
   8.224148865318391E-09   8.645784421108517E-09   9.089035700147860E-09
   9.555010813345564E-09   1.004487466738670E-08   1.055985188283776E-08
   1.110122985725758E-08   1.167036197320013E-08   1.226867099716168E-08
   1.289765261137902E-08   1.355887917426976E-08   1.425400363615783E-08
   1.498476367592301E-08   1.575298603826646E-08   1.656059110396044E-08
   1.740959768859166E-08   1.830212807858058E-08   1.924041334574956E-08
   2.022679890581342E-08   2.126375043707667E-08   2.235385990016189E-08
   2.349985218257856E-08   2.470459186059369E-08   2.597109020320641E-08
   2.730251295691931E-08   2.870218802778127E-08   3.017361391746737E-08
   3.172046845239543E-08   3.334661792431422E-08   3.505612675509339E-08
   3.685326772582361E-08   3.874253256464396E-08   4.072864317702422E-08
   4.281656348984223E-08   4.501151181698968E-08   4.731897390594017E-08
   4.974471656329631E-08   5.229480224890124E-08   5.497560399761949E-08
   5.779382145380606E-08   6.075649756755220E-08   6.387103624242176E-08
   6.714522071415852E-08   7.058723310202884E-08   7.420567482237990E-08
   7.800958787515242E-08   8.200847776744367E-08   8.621233692780224E-08
   9.063166982498433E-08   9.527751915426359E-08   1.001614934489403E-07
   1.052957958801267E-07   1.106932549922770E-07   1.163673564548027E-07
   1.223322770215954E-07   1.286029195310871E-07   1.351949505298838E-07
   1.421248390098599E-07   1.494098976663283E-07   1.570683261685568E-07
   1.651192564812372E-07   1.735828006388453E-07   1.824801006392393E-07
   1.918333819338393E-07   2.016660079747965E-07   2.120025391541133E-07
   2.228687936754925E-07   2.342919123052374E-07   2.463004258348328E-07
   2.589243260448432E-07   2.721951409931930E-07   2.861460133082529E-07
   3.008117828293720E-07   3.162290736414948E-07   3.324363851643041E-07
   3.494741884346936E-07   3.673850265030258E-07   3.862136212367607E-07
   4.060069837834167E-07   4.268145326888375E-07   4.486882165040611E-07
   4.716826432500190E-07   4.958552167185723E-07   5.212662793135469E-07
   5.479792623320454E-07   5.760608440239182E-07   6.055811157587713E-07
   6.366137562800307E-07   6.692362156816223E-07   7.035299075245739E-07
   7.395804122034532E-07   7.774776896211992E-07   8.173163031299906E-07
   8.591956548600928E-07   9.032202331710809E-07   9.494998725527039E-07
   9.981500268875904E-07   1.049292056552426E-06   1.103053530469833E-06
   1.159568542864065E-06   1.218978047343919E-06   1.281430206802490E-06
   1.347080761842451E-06   1.416093417921505E-06   1.488640252060693E-06
   1.564902140328803E-06   1.645069207294775E-06   1.729341298203808E-06
   1.817928475011131E-06   1.911051538335497E-06   2.008942575242903E-06
   2.111845535345577E-06   2.220016836202205E-06   2.333725999479054E-06
   2.453256319507537E-06   2.578905565574622E-06   2.710986720706845E-06
   2.849828757177039E-06   2.995777451788722E-06   3.149196242731641E-06
   3.310467130143008E-06   3.479991621597539E-06   3.658191726931204E-06
   3.845511002077044E-06   4.042415647726038E-06   4.249395661761276E-06
   4.466966051977184E-06   4.695668109352512E-06   4.936070745882469E-06
   5.188771900735935E-06   5.454400017549363E-06   5.733615596747095E-06
   6.027112825852622E-06   6.335621293123493E-06   6.659907787947472E-06
   7.000778192145851E-06   7.359079466709201E-06   7.735701739767860E-06
   8.131580499593790E-06   8.547698898949891E-06   8.985090175315002E-06
   9.444840194200353E-06   9.928090119902335E-06   1.043603922220475E-05
   1.096994782376068E-05   1.153114039688583E-05   1.212100881605524E-05
   1.274101577442807E-05   1.339269837288769E-05   1.407767188899870E-05
   1.479763373652781E-05   1.555436762377682E-05   1.634974792104695E-05
   1.718574424753015E-05   1.806442628887858E-05   1.898796885638094E-05
   1.995865720022800E-05   2.097889258930386E-05   2.205119817007326E-05
   2.317822511987891E-05   2.436275910763528E-05   2.560772707786938E-05
   2.691620437425469E-05   2.829142221872848E-05   2.973677556443807E-05
   3.125583134007349E-05   3.285233710573910E-05   3.453023013996478E-05
   3.629364697889463E-05   3.814693343071306E-05   4.009465508703673E-05
   4.214160835699942E-05   4.429283204910583E-05   4.655361952669097E-05
   4.892953146617233E-05   5.142640924655688E-05   5.405038900121346E-05
   5.680791636356555E-05   5.970576194104781E-05   6.275103755118125E-05
   6.595121325850069E-05   6.931413524820734E-05   7.284804457965036E-05
   7.656159685934578E-05   8.046388287918574E-05   8.456445026502990E-05
   8.887332618433532E-05   9.340104116307461E-05   9.815865406434590E-05
   1.031577782840283E-04   1.084106092213702E-04   1.139299530826916E-04
   1.197292570845925E-04   1.258226411182292E-04   1.322249309457858E-04
   1.389516929993458E-04   1.460192708582777E-04   1.534448234801191E-04
   1.612463652701566E-04   1.694428080702552E-04   1.780540051590798E-04
   1.871007973531148E-04   1.966050613060791E-04   2.065897601057818E-04
   2.170789962738848E-04   2.280980672762413E-04   2.396735236564857E-04
   2.518332299125589E-04   2.646064282358309E-04   2.780238052430275E-04
   2.921175618308764E-04   3.069214862932273E-04   3.224710308422981E-04
   3.388033916832338E-04   3.559575927964674E-04   3.739745735874972E-04
   3.928972805702719E-04   4.127707632569893E-04   4.336422744316545E-04
   4.555613749934328E-04   4.785800435606327E-04   5.027527910333266E-04
   5.281367803193467E-04   5.547919514359501E-04   5.827811522051619E-04
   6.121702747680516E-04   6.430283981522814E-04   6.754279371304767E-04
   7.094447976188651E-04   7.451585388682366E-04   7.826525427097020E-04
   8.220141901233684E-04   8.633350454052221E-04   9.067110482143718E-04
   9.522427137897446E-04   1.000035341631303E-03   1.050199232948438E-03
   1.102849917182111E-03   1.158108387914863E-03   1.216101348486936E-03
   1.276961467642338E-03   1.340827645531372E-03   1.407845290401774E-03
   1.478166606311817E-03   1.551950892201490E-03   1.629364852658814E-03
   1.710582920718799E-03   1.795787593030814E-03   1.885169777728718E-03
   1.978929155333775E-03   2.077274553015463E-03   2.180424332527916E-03
   2.288606792131691E-03   2.402060582798904E-03   2.521035138986097E-03
   2.645791124246383E-03   2.776600891928567E-03   2.913748961196576E-03
   3.057532508571152E-03   3.208261875172867E-03   3.366261089811272E-03
   3.531868408028216E-03   3.705436867166040E-03   3.887334857482443E-03
   4.077946709286583E-03   4.277673296012778E-03   4.486932653087627E-03
   4.706160612376643E-03   4.935811451922913E-03   5.176358560606210E-03
   5.428295117259662E-03   5.692134783684724E-03   5.968412410894096E-03
   6.257684757795467E-03   6.560531221402104E-03   6.877554577514747E-03
   7.209381730671947E-03   7.556664471999704E-03   7.920080243419317E-03
   8.300332906478523E-03   8.698153513872287E-03   9.114301081494885E-03
   9.549563358634506E-03   1.000475759366713E-02   1.048073129233688E-02
   1.097836296542435E-02   1.149856286229405E-02   1.204227368648810E-02
   1.261047128918370E-02   1.320416533596398E-02   1.382439994195918E-02
   1.447225427000196E-02   1.514884308600341E-02   1.585531726529386E-02
   1.659286424318773E-02   1.736270840252081E-02   1.816611139037359E-02
   1.900437235563302E-02   1.987882809846147E-02   2.079085312213071E-02
   2.174185957704591E-02   2.273329708612611E-02   2.376665244003105E-02
   2.484344915002076E-02   2.596524684551581E-02   2.713364050269060E-02
   2.835025948967599E-02   2.961676641318924E-02   3.093485575063179E-02
   3.230625225092159E-02   3.373270908655026E-02   3.521600573858083E-02
   3.675794559554747E-02   3.836035324647277E-02   4.002507144750607E-02
   4.175395774100451E-02   4.354888070524164E-02   4.541171581235162E-02
   4.734434087159708E-02   4.934863103461892E-02   5.142645333898556E-02
   5.357966076612550E-02   5.581008578962975E-02   5.811953338994576E-02
   6.050977351169615E-02   6.298253294024571E-02   6.553948657474426E-02
   6.818224807571099E-02   7.091235986632007E-02   7.373128246793567E-02
   7.664038315214626E-02   7.964092389359465E-02   8.273404861033729E-02
   8.592076968130274E-02   8.920195373371367E-02   9.257830669710876E-02
   9.605035812488924E-02   9.961844478916586E-02   1.032826935601100E-01
   1.070430035870776E-01   1.108990278054914E-01   1.148501538008782E-01
   1.188954840695913E-01   1.230338157246320E-01   1.272636197046328E-01
   1.315830195545177E-01   1.359897698575920E-01   1.404812344108791E-01
   1.450543642483722E-01   1.497056756305218E-01   1.544312281326976E-01
   1.592266029804968E-01   1.640868817956128E-01   1.690066259323763E-01
   1.739798566020519E-01   1.790000359993282E-01   1.840600496630662E-01
   1.891521903211708E-01   1.942681434871387E-01   1.993989750933159E-01
   2.045351214628610E-01   2.096663819385763E-01   2.147819145019331E-01
   2.198702347292920E-01   2.249192184442815E-01   2.299161084350541E-01
   2.348475256122476E-01   2.396994849875553E-01   2.444574168532109E-01
   2.491061935390324E-01   2.536301621152970E-01   2.580131833960675E-01
   2.622386775781566E-01   2.662896768249781E-01   2.701488850716428E-01
   2.737987452871476E-01   2.772215143808830E-01   2.803993458834764E-01
   2.833143804657016E-01   2.859488442835519E-01   2.882851550522829E-01
   2.903060356571726E-01   2.919946350039768E-01   2.933346556976947E-01
   2.943104880147558E-01   2.949073495016465E-01   2.951114293931578E-01
   2.949100368969823E-01   2.942917522396452E-01   2.932465792134508E-01
   2.917660978071722E-01   2.898436153469526E-01   2.874743144208193E-01
   2.846553957132710E-01   2.813862137386151E-01   2.776684033364652E-01
   2.735059946835434E-01   2.689055144861297E-01   2.638760709508388E-01
   2.584294200911530E-01   2.525800109165925E-01   2.463450070733080E-01
   2.397442825614609E-01   2.328003892476483E-01   2.255384940204164E-01
   2.179862836032700E-01   2.101738352410263E-01   2.021334517088031E-01
   1.938994593543131E-01   1.855079681674307E-01   1.769965931690833E-01
   1.684041367159035E-01   1.597702316178863E-01   1.511349452534735E-01
   1.425383451291993E-01   1.340200265594520E-01   1.256186033274560E-01
   1.173711623251651E-01   1.093126832555553E-01   1.014754245190848E-01
   9.388827640766130E-02   8.657608271417791E-02   7.955893186434278E-02
   7.285141873425921E-02   6.646187849058190E-02   6.039159415514863E-02
   5.463398024490826E-02   4.917374587997080E-02   4.399342904494818E-02
   3.909771580040144E-02   3.449603489891429E-02   3.019577049724809E-02
   2.620215895159106E-02   2.251820416805106E-02   1.914461390361177E-02
   1.607975933342609E-02   1.331966008047369E-02   1.085799674242371E-02
   8.686152747998221E-03   6.793287132379811E-03   5.166439540512768E-03
   3.790668451886248E-03   2.649223275249413E-03   1.723750592267814E-03
   9.945344419586277E-04   4.407701403419395E-04   4.087072583081053E-05
  -2.271986821466010E-04  -3.855631271232340E-04  -4.560358514482665E-04
  -4.596808933808871E-04  -4.163868029000151E-04  -3.443983633367731E-04
  -2.598404714077018E-04  -1.762283346121718E-04  -1.039701530342052E-04
  -4.986683588581453E-05  -1.661418369480749E-05  -2.313790596342180E-06
   0.000000000000000E+00   0.000000000000000E+00   0.000000000000000E+00
   0.000000000000000E+00   0.000000000000000E+00   0.000000000000000E+00
   0.000000000000000E+00   0.000000000000000E+00   0.000000000000000E+00
   0.000000000000000E+00   0.000000000000000E+00   0.000000000000000E+00
   0.000000000000000E+00   0.000000000000000E+00   0.000000000000000E+00
   0.000000000000000E+00   0.000000000000000E+00   0.000000000000000E+00
   0.000000000000000E+00   0.000000000000000E+00   0.000000000000000E+00
   0.000000000000000E+00   0.000000000000000E+00   0.000000000000000E+00
   0.000000000000000E+00   0.000000000000000E+00   0.000000000000000E+00
   0.000000000000000E+00   0.000000000000000E+00   0.000000000000000E+00
   0.000000000000000E+00   0.000000000000000E+00   0.000000000000000E+00
   0.000000000000000E+00   0.000000000000000E+00   0.000000000000000E+00
   0.000000000000000E+00   0.000000000000000E+00   0.000000000000000E+00
   0.000000000000000E+00   0.000000000000000E+00   0.000000000000000E+00
   0.000000000000000E+00   0.000000000000000E+00   0.000000000000000E+00
   0.000000000000000E+00   0.000000000000000E+00   0.000000000000000E+00
   0.000000000000000E+00   0.000000000000000E+00   0.000000000000000E+00
   0.000000000000000E+00   0.000000000000000E+00   0.000000000000000E+00
   0.000000000000000E+00   0.000000000000000E+00   0.000000000000000E+00
   0.000000000000000E+00   0.000000000000000E+00   0.000000000000000E+00
   0.000000000000000E+00   0.000000000000000E+00   0.000000000000000E+00
   0.000000000000000E+00   0.000000000000000E+00   0.000000000000000E+00
   0.000000000000000E+00   0.000000000000000E+00   0.000000000000000E+00
   0.000000000000000E+00   0.000000000000000E+00   0.000000000000000E+00
   0.000000000000000E+00   0.000000000000000E+00   0.000000000000000E+00
   0.000000000000000E+00   0.000000000000000E+00   0.000000000000000E+00
   0.000000000000000E+00   0.000000000000000E+00   0.000000000000000E+00
   0.000000000000000E+00   0.000000000000000E+00   0.000000000000000E+00
   0.000000000000000E+00   0.000000000000000E+00   0.000000000000000E+00
   0.000000000000000E+00   0.000000000000000E+00   0.000000000000000E+00
   0.000000000000000E+00   0.000000000000000E+00   0.000000000000000E+00
   0.000000000000000E+00   0.000000000000000E+00   0.000000000000000E+00
   0.000000000000000E+00   0.000000000000000E+00   0.000000000000000E+00
   0.000000000000000E+00   0.000000000000000E+00   0.000000000000000E+00
   0.000000000000000E+00   0.000000000000000E+00   0.000000000000000E+00
   0.000000000000000E+00   0.000000000000000E+00   0.000000000000000E+00
   0.000000000000000E+00   0.000000000000000E+00   0.000000000000000E+00
   0.000000000000000E+00   0.000000000000000E+00   0.000000000000000E+00
   0.000000000000000E+00   0.000000000000000E+00   0.000000000000000E+00
   0.000000000000000E+00   0.000000000000000E+00   0.000000000000000E+00
   0.000000000000000E+00   0.000000000000000E+00   0.000000000000000E+00
   0.000000000000000E+00   0.000000000000000E+00   0.000000000000000E+00
   0.000000000000000E+00   0.000000000000000E+00   0.000000000000000E+00
   0.000000000000000E+00   0.000000000000000E+00   0.000000000000000E+00
   0.000000000000000E+00   0.000000000000000E+00   0.000000000000000E+00
   0.000000000000000E+00   0.000000000000000E+00   0.000000000000000E+00
   0.000000000000000E+00   0.000000000000000E+00   0.000000000000000E+00
   0.000000000000000E+00   0.000000000000000E+00   0.000000000000000E+00
   0.000000000000000E+00   0.000000000000000E+00   0.000000000000000E+00
   0.000000000000000E+00   0.000000000000000E+00   0.000000000000000E+00
   0.000000000000000E+00   0.000000000000000E+00   0.000000000000000E+00
   0.000000000000000E+00   0.000000000000000E+00   0.000000000000000E+00
   0.000000000000000E+00   0.000000000000000E+00   0.000000000000000E+00
   0.000000000000000E+00   0.000000000000000E+00   0.000000000000000E+00
   0.000000000000000E+00   0.000000000000000E+00   0.000000000000000E+00
   0.000000000000000E+00   0.000000000000000E+00   0.000000000000000E+00
   0.000000000000000E+00   0.000000000000000E+00   0.000000000000000E+00
   0.000000000000000E+00   0.000000000000000E+00   0.000000000000000E+00
   0.000000000000000E+00   0.000000000000000E+00   0.000000000000000E+00
   0.000000000000000E+00   0.000000000000000E+00   0.000000000000000E+00
   0.000000000000000E+00   0.000000000000000E+00   0.000000000000000E+00
   0.000000000000000E+00   0.000000000000000E+00   0.000000000000000E+00
   0.000000000000000E+00   0.000000000000000E+00   0.000000000000000E+00
   0.000000000000000E+00   0.000000000000000E+00   0.000000000000000E+00
   0.000000000000000E+00   0.000000000000000E+00   0.000000000000000E+00
   0.000000000000000E+00   0.000000000000000E+00   0.000000000000000E+00
   0.000000000000000E+00   0.000000000000000E+00   0.000000000000000E+00
   0.000000000000000E+00   0.000000000000000E+00   0.000000000000000E+00
   0.000000000000000E+00   0.000000000000000E+00   0.000000000000000E+00
   0.000000000000000E+00   0.000000000000000E+00   0.000000000000000E+00
   0.000000000000000E+00   0.000000000000000E+00   0.000000000000000E+00
   0.000000000000000E+00   0.000000000000000E+00   0.000000000000000E+00
   0.000000000000000E+00   0.000000000000000E+00   0.000000000000000E+00
   0.000000000000000E+00   0.000000000000000E+00   0.000000000000000E+00
   0.000000000000000E+00   0.000000000000000E+00   0.000000000000000E+00
   0.000000000000000E+00   0.000000000000000E+00   0.000000000000000E+00
   0.000000000000000E+00   0.000000000000000E+00   0.000000000000000E+00
   0.000000000000000E+00   0.000000000000000E+00   0.000000000000000E+00
   0.000000000000000E+00   0.000000000000000E+00   0.000000000000000E+00
   0.000000000000000E+00   0.000000000000000E+00   0.000000000000000E+00
   0.000000000000000E+00   0.000000000000000E+00   0.000000000000000E+00
   0.000000000000000E+00   0.000000000000000E+00   0.000000000000000E+00
   0.000000000000000E+00   0.000000000000000E+00   0.000000000000000E+00
   0.000000000000000E+00   0.000000000000000E+00   0.000000000000000E+00
   0.000000000000000E+00   0.000000000000000E+00   0.000000000000000E+00
   0.000000000000000E+00   0.000000000000000E+00   0.000000000000000E+00
   0.000000000000000E+00   0.000000000000000E+00   0.000000000000000E+00
   0.000000000000000E+00   0.000000000000000E+00   0.000000000000000E+00
   0.000000000000000E+00   0.000000000000000E+00   0.000000000000000E+00
   0.000000000000000E+00   0.000000000000000E+00   0.000000000000000E+00
   0.000000000000000E+00   0.000000000000000E+00   0.000000000000000E+00
   0.000000000000000E+00   0.000000000000000E+00   0.000000000000000E+00
   0.000000000000000E+00   0.000000000000000E+00   0.000000000000000E+00
   0.000000000000000E+00   0.000000000000000E+00   0.000000000000000E+00
   0.000000000000000E+00   0.000000000000000E+00   0.000000000000000E+00
   0.000000000000000E+00   0.000000000000000E+00   0.000000000000000E+00
   0.000000000000000E+00   0.000000000000000E+00   0.000000000000000E+00
   0.000000000000000E+00   0.000000000000000E+00   0.000000000000000E+00
   0.000000000000000E+00   0.000000000000000E+00   0.000000000000000E+00
   0.000000000000000E+00   0.000000000000000E+00   0.000000000000000E+00
   0.000000000000000E+00   0.000000000000000E+00   0.000000000000000E+00
   0.000000000000000E+00   0.000000000000000E+00   0.000000000000000E+00
   0.000000000000000E+00   0.000000000000000E+00   0.000000000000000E+00
   0.000000000000000E+00   0.000000000000000E+00   0.000000000000000E+00
   0.000000000000000E+00   0.000000000000000E+00   0.000000000000000E+00
   0.000000000000000E+00   0.000000000000000E+00   0.000000000000000E+00
   0.000000000000000E+00   0.000000000000000E+00   0.000000000000000E+00
   0.000000000000000E+00   0.000000000000000E+00   0.000000000000000E+00
   0.000000000000000E+00   0.000000000000000E+00   0.000000000000000E+00
   0.000000000000000E+00   0.000000000000000E+00   0.000000000000000E+00
   0.000000000000000E+00   0.000000000000000E+00   0.000000000000000E+00
   0.000000000000000E+00   0.000000000000000E+00   0.000000000000000E+00
   0.000000000000000E+00   0.000000000000000E+00   0.000000000000000E+00
   0.000000000000000E+00   0.000000000000000E+00   0.000000000000000E+00
   0.000000000000000E+00   0.000000000000000E+00   0.000000000000000E+00
      </PP_QIJL.3.3.2>
      <PP_QIJL.3.4.0 first_index="3" second_index="4" composite_index="9" angular_momentum="0" size="1095">
   1.882327769633591E-08   1.929979123622825E-08   1.978836777362707E-08
   2.028931268475851E-08   2.080293907648426E-08   2.132956798200334E-08
   2.186952856150837E-08   2.242315830792139E-08   2.299080325783775E-08
   2.357281820781042E-08   2.416956693610909E-08   2.478142243009353E-08
   2.540876711934275E-08   2.605199311468578E-08   2.671150245328395E-08
   2.738770734991674E-08   2.808103045462960E-08   2.879190511690390E-08
   2.952077565651431E-08   3.026809764124323E-08   3.103433817162519E-08
   3.181997617289989E-08   3.262550269435600E-08   3.345142121625280E-08
   3.429824796451183E-08   3.516651223337448E-08   3.605675671622823E-08
   3.696953784480753E-08   3.790542613698151E-08   3.886500655334645E-08
   3.984887886284456E-08   4.085765801763935E-08   4.189197453748038E-08
   4.295247490379857E-08   4.403982196377813E-08   4.515469534465717E-08
   4.629779187851674E-08   4.746982603782359E-08   4.867153038199822E-08
   4.990365601528860E-08   5.116697305623393E-08   5.246227111901418E-08
   5.379035980698397E-08   5.515206921870102E-08   5.654825046676460E-08
   5.797977620978805E-08   5.944754119783858E-08   6.095246283168506E-08
   6.249548173620288E-08   6.407756234829510E-08   6.569969351969595E-08
   6.736288913503551E-08   6.906818874555002E-08   7.081665821883468E-08
   7.260939040504578E-08   7.444750581996626E-08   7.633215334536468E-08
   7.826451094708313E-08   8.024578641130338E-08   8.227721809945276E-08
   8.436007572221879E-08   8.649566113315981E-08   8.868530914240485E-08
   9.093038835095267E-08   9.323230200609186E-08   9.559248887847436E-08
   9.801242416139385E-08   1.004936203928285E-07   1.030376284008254E-07
   1.056460382728184E-07   1.083204803494825E-07   1.110626262437496E-07
   1.138741898856196E-07   1.167569285934211E-07   1.197126441721925E-07
   1.227431840398660E-07   1.258504423819636E-07   1.290363613355231E-07
   1.323029322029957E-07   1.356521966968731E-07   1.390862482158229E-07
   1.426072331531290E-07   1.462173522382555E-07   1.499188619123727E-07
   1.537140757387044E-07   1.576053658485777E-07   1.615951644240805E-07
   1.656859652182520E-07   1.698803251137573E-07   1.741808657210203E-07
   1.785902750168118E-07   1.831113090243207E-07   1.877467935357548E-07
   1.924996258785499E-07   1.973727767262915E-07   2.023692919554771E-07
   2.074922945492870E-07   2.127449865495446E-07   2.181306510580941E-07
   2.236526542888425E-07   2.293144476717466E-07   2.351195700100660E-07
   2.410716496922253E-07   2.471744069596690E-07   2.534316562321307E-07
   2.598473084917612E-07   2.664253737276153E-07   2.731699634420188E-07
   2.800852932203849E-07   2.871756853660873E-07   2.944455716020303E-07
   3.018994958406142E-07   3.095421170238204E-07   3.173782120351930E-07
   3.254126786855398E-07   3.336505387742107E-07   3.420969412278795E-07
   3.507571653187787E-07   3.596366239644058E-07   3.687408671107644E-07
   3.780755852012456E-07   3.876466127333300E-07   3.974599319053255E-07
   4.075216763554214E-07   4.178381349954005E-07   4.284157559413938E-07
   4.392611505441511E-07   4.503810975213312E-07   4.617825471944053E-07
   4.734726258328169E-07   4.854586401081083E-07   4.977480816608116E-07
   5.103486317829454E-07   5.232681662190488E-07   5.365147600887584E-07
   5.500966929339905E-07   5.640224538939009E-07   5.783007470108466E-07
   5.929404966706641E-07   6.079508531806749E-07   6.233411984888887E-07
   6.391211520479950E-07   6.553005768277987E-07   6.718895854798601E-07
   6.888985466581943E-07   7.063380914999715E-07   7.242191202702849E-07
   7.425528091751251E-07   7.613506173468218E-07   7.806242940063322E-07
   8.003858858068242E-07   8.206477443631774E-07   8.414225339720846E-07
   8.627232395275872E-07   8.845631746369977E-07   9.069559899422612E-07
   9.299156816519861E-07   9.534566002894544E-07   9.775934596620840E-07
   1.002341346057962E-06   1.027715727675169E-06   1.053732464289825E-06
   1.080407817168861E-06   1.107758459233742E-06   1.135801485481491E-06
   1.164554423669481E-06   1.194035245270766E-06   1.224262376706695E-06
   1.255254710863896E-06   1.287031618902825E-06   1.319612962365200E-06
   1.353019105587994E-06   1.387270928431625E-06   1.422389839330389E-06
   1.458397788673267E-06   1.495317282523416E-06   1.533171396685039E-06
   1.571983791126279E-06   1.611778724767267E-06   1.652581070642521E-06
   1.694416331447138E-06   1.737310655476601E-06   1.781290852970015E-06
   1.826384412867129E-06   1.872619519989528E-06   1.920025072656737E-06
   1.968630700748328E-06   2.018466784223202E-06   2.069564472107698E-06
   2.121955701964399E-06   2.175673219853723E-06   2.230750600800911E-06
   2.287222269781042E-06   2.345123523235330E-06   2.404490551132086E-06
   2.465360459586077E-06   2.527771294050595E-06   2.591762063096503E-06
   2.657372762793292E-06   2.724644401707346E-06   2.793619026532921E-06
   2.864339748372107E-06   2.936850769679890E-06   3.011197411891413E-06
   3.087426143748580E-06   3.165584610343646E-06   3.245721662898160E-06
   3.327887389295604E-06   3.412133145387007E-06   3.498511587089045E-06
   3.587076703294578E-06   3.677883849616430E-06   3.770989782985222E-06
   3.866452697123094E-06   3.964332258915401E-06   4.064689645703033E-06
   4.167587583518908E-06   4.273090386292205E-06   4.381263996045117E-06
   4.492176024107118E-06   4.605895793372432E-06   4.722494381627362E-06
   4.842044665974203E-06   4.964621368379812E-06   5.090301102377166E-06
   5.219162420948986E-06   5.351285865623661E-06   5.486754016813765E-06
   5.625651545428919E-06   5.768065265795178E-06   5.914084189913817E-06
   6.063799583093850E-06   6.217305020992521E-06   6.374696448099824E-06
   6.536072237703485E-06   6.701533253371617E-06   6.871182911992031E-06
   7.045127248406939E-06   7.223474981683930E-06   7.406337583064459E-06
   7.593829345632119E-06   7.786067455744733E-06   7.983172066274247E-06
   8.185266371700718E-06   8.392476685107118E-06   8.604932517122959E-06
   8.822766656866300E-06   9.046115254934487E-06   9.275117908495638E-06
   9.509917748534012E-06   9.750661529303629E-06   9.997499720046309E-06
   1.025058659903113E-05   1.051008034997428E-05   1.077614316089952E-05
   1.104894132550086E-05   1.132864534707101E-05   1.161543004506035E-05
   1.190947466433308E-05   1.221096298718888E-05   1.252008344821983E-05
   1.283702925207472E-05   1.316199849420379E-05   1.349519428466001E-05
   1.383682487503363E-05   1.418710378859958E-05   1.454624995375915E-05
   1.491448784085892E-05   1.529204760247283E-05   1.567916521723482E-05
   1.607608263731173E-05   1.648304793960908E-05   1.690031548080351E-05
   1.732814605629930E-05   1.776680706320802E-05   1.821657266745302E-05
   1.867772397510335E-05   1.915054920804396E-05   1.963534388409191E-05
   2.013241100167140E-05   2.064206122916233E-05   2.116461309904135E-05
   2.170039320693614E-05   2.224973641571751E-05   2.281298606475674E-05
   2.339049418447864E-05   2.398262171634474E-05   2.458973873840344E-05
   2.521222469654849E-05   2.585046864163000E-05   2.650486947256573E-05
   2.717583618560520E-05   2.786378812990147E-05   2.856915526955069E-05
   2.929237845226301E-05   3.003390968483204E-05   3.079421241557590E-05
   3.157376182392496E-05   3.237304511733806E-05   3.319256183573216E-05
   3.403282416361533E-05   3.489435725011834E-05   3.577769953712414E-05
   3.668340309570052E-05   3.761203397104582E-05   3.856417253616249E-05
   3.954041385448031E-05   4.054136805165437E-05   4.156766069677083E-05
   4.261993319319803E-05   4.369884317932636E-05   4.480506493944818E-05
   4.593928982503265E-05   4.710222668665972E-05   4.829460231688207E-05
   4.951716190429113E-05   5.077066949907141E-05   5.205590849033232E-05
   5.337368209551639E-05   5.472481386218867E-05   5.611014818252008E-05
   5.753055082078634E-05   5.898690945421073E-05   6.048013422748848E-05
   6.201115832133849E-05   6.358093853543731E-05   6.519045588609757E-05
   6.684071621906530E-05   6.853275083781738E-05   7.026761714775029E-05
   7.204639931666340E-05   7.387020895194610E-05   7.574018579489339E-05
   7.765749843258132E-05   7.962334502774576E-05   8.163895406712110E-05
   8.370558512870195E-05   8.582452966840999E-05   8.799711182665275E-05
   9.022468925527867E-05   9.250865396544360E-05   9.485043319691470E-05
   9.725149030935674E-05   9.971332569615292E-05   1.022374777213306E-04
   1.048255236801758E-04   1.074790807841325E-04   1.101998071706024E-04
   1.129894029382724E-04   1.158496112086143E-04   1.187822192142181E-04
   1.217890594146341E-04   1.248720106404210E-04   1.280329992661102E-04
   1.312740004128151E-04   1.345970391812359E-04   1.380041919158239E-04
   1.414975875008931E-04   1.450794086894852E-04   1.487518934658129E-04
   1.525173364421300E-04   1.563780902908931E-04   1.603365672131097E-04
   1.643952404437812E-04   1.685566457953771E-04   1.728233832403005E-04
   1.771981185333235E-04   1.816835848750057E-04   1.862825846171232E-04
   1.909979910111698E-04   1.958327500010146E-04   2.007898820608260E-04
   2.058724840794070E-04   2.110837312921052E-04   2.164268792614987E-04
   2.219052659080871E-04   2.275223135922387E-04   2.332815312486940E-04
   2.391865165749417E-04   2.452409582748224E-04   2.514486383587546E-04
   2.578134345019974E-04   2.643393224624207E-04   2.710303785592703E-04
   2.778907822144650E-04   2.849248185579958E-04   2.921368810990403E-04
   2.995314744644372E-04   3.071132172062210E-04   3.148868446799447E-04
   3.228572119955686E-04   3.310292970427421E-04   3.394082035923329E-04
   3.479991644761325E-04   3.568075448466846E-04   3.658388455192540E-04
   3.750987063979932E-04   3.845929099884116E-04   3.943273849983168E-04
   4.043082100294420E-04   4.145416173620246E-04   4.250339968346729E-04
   4.357918998218917E-04   4.468220433117245E-04   4.581313140860040E-04
   4.697267730057818E-04   4.816156594045679E-04   4.938053955920595E-04
   5.063035914711389E-04   5.191180492709502E-04   5.322567683989563E-04
   5.457279504149515E-04   5.595400041300512E-04   5.737015508337952E-04
   5.882214296525362E-04   6.031087030423941E-04   6.183726624201219E-04
   6.340228339353000E-04   6.500689843873952E-04   6.665211272912625E-04
   6.833895290947849E-04   7.006847155524282E-04   7.184174782585643E-04
   7.365988813445395E-04   7.552402683435332E-04   7.743532692273600E-04
   7.939498076194790E-04   8.140421081885383E-04   8.346427042269538E-04
   8.557644454190500E-04   8.774205058034644E-04   8.996243919345907E-04
   9.223899512479559E-04   9.457313806345626E-04   9.696632352293172E-04
   9.942004374188110E-04   1.019358286073834E-03   1.045152466012110E-03
   1.071599057696919E-03   1.098714547177350E-03   1.126515836276103E-03
   1.155020253030867E-03   1.184245562395450E-03   1.214209977207006E-03
   1.244932169425804E-03   1.276431281654154E-03   1.308726938941281E-03
   1.341839260881031E-03   1.375788874009517E-03   1.410596924509937E-03
   1.446285091231939E-03   1.482875599033145E-03   1.520391232450507E-03
   1.558855349709452E-03   1.598291897078882E-03   1.638725423580252E-03
   1.680181096059217E-03   1.722684714628403E-03   1.766262728490163E-03
   1.810942252148271E-03   1.856751082017738E-03   1.903717713442159E-03
   1.951871358128086E-03   2.001241962006289E-03   2.051860223529790E-03
   2.103757612418877E-03   2.156966388863488E-03   2.211519623193470E-03
   2.267451216027602E-03   2.324795918912291E-03   2.383589355461189E-03
   2.443868043007151E-03   2.505669414778111E-03   2.569031842608802E-03
   2.633994660200296E-03   2.700598186939672E-03   2.768883752292305E-03
   2.838893720779387E-03   2.910671517553698E-03   2.984261654586641E-03
   3.059709757479888E-03   3.137062592915190E-03   3.216368096755975E-03
   3.297675402814762E-03   3.381034872300412E-03   3.466498123959521E-03
   3.554118064926476E-03   3.643948922296701E-03   3.736046275438012E-03
   3.830467089054962E-03   3.927269747021294E-03   4.026514086995767E-03
   4.128261435836581E-03   4.232574645830030E-03   4.339518131748765E-03
   4.449157908755352E-03   4.561561631166795E-03   4.676798632095616E-03
   4.794939963983303E-03   4.916058440041729E-03   5.040228676618162E-03
   5.167527136499486E-03   5.298032173170890E-03   5.431824076044549E-03
   5.568985116673196E-03   5.709599595963518E-03   5.853753892404031E-03
   6.001536511321484E-03   6.153038135179957E-03   6.308351674935806E-03
   6.467572322461580E-03   6.630797604051176E-03   6.798127435017860E-03
   6.969664175396299E-03   7.145512686758599E-03   7.325780390153625E-03
   7.510577325177935E-03   7.700016210185198E-03   7.894212503640209E-03
   8.093284466621846E-03   8.297353226478036E-03   8.506542841634072E-03
   8.720980367553718E-03   8.940795923850910E-03   9.166122762547276E-03
   9.397097337468624E-03   9.633859374771014E-03   9.876551944583952E-03
   1.012532153375569E-02   1.038031811968197E-02   1.064169524519613E-02
   1.090961009449480E-02   1.118422357006880E-02   1.146570037060521E-02
   1.175420906982068E-02   1.204992219618170E-02   1.235301631346159E-02
   1.266367210207744E-02   1.298207444114472E-02   1.330841249117917E-02
   1.364287977736861E-02   1.398567427332912E-02   1.433699848525075E-02
   1.469705953632958E-02   1.506606925137152E-02   1.544424424144356E-02
   1.583180598843604E-02   1.622898092938675E-02   1.663600054040515E-02
   1.705310142002021E-02   1.748052537175982E-02   1.791851948575422E-02
   1.836733621913743E-02   1.882723347500289E-02   1.929847467964894E-02
   1.978132885782865E-02   2.027607070569621E-02   2.078298066111664E-02
   2.130234497098154E-02   2.183445575514430E-02   2.237961106655983E-02
   2.293811494718265E-02   2.351027747914289E-02   2.409641483068612E-02
   2.469684929632378E-02   2.531190933060157E-02   2.594192957485135E-02
   2.658725087624568E-02   2.724822029842825E-02   2.792519112294103E-02
   2.861852284061651E-02   2.932858113204654E-02   3.005573783617816E-02
   3.080037090602517E-02   3.156286435041543E-02   3.234360816062373E-02
   3.314299822066605E-02   3.396143619995021E-02   3.479932942689797E-02
   3.565709074206380E-02   3.653513832918501E-02   3.743389552250182E-02
   3.835379058858360E-02   3.929525648079383E-02   4.025873056441304E-02
   4.124465431032513E-02   4.225347295505032E-02   4.328563512478208E-02
   4.434159242095478E-02   4.542179896473175E-02   4.652671089766153E-02
   4.765678583560515E-02   4.881248227288273E-02   4.999425893343550E-02
   5.120257406563485E-02   5.243788467720709E-02   5.370064570657365E-02
   5.499130912673286E-02   5.631032297763690E-02   5.765813032283741E-02
   5.903516812599659E-02   6.044186604268123E-02   6.187864512267600E-02
   6.334591641787898E-02   6.484407949066494E-02   6.637352081743368E-02
   6.793461208189740E-02   6.952770835250401E-02   7.115314613825204E-02
   7.281124131701590E-02   7.450228693038791E-02   7.622655083894300E-02
   7.798427323175597E-02   7.977566398395337E-02   8.160089985605745E-02
   8.346012152889667E-02   8.535343046790904E-02   8.728088561076000E-02
   8.924249987234939E-02   9.123823646148135E-02   9.326800500374463E-02
   9.533165746548838E-02   9.742898387419792E-02   9.955970783108678E-02
   1.017234818123222E-01   1.039198822560182E-01   1.061484044329611E-01
   1.084084570999923E-01   1.106993569360792E-01   1.130203227623596E-01
   1.153704695488721E-01   1.177488022122899E-01   1.201542092107773E-01
   1.225854559441039E-01   1.250411779693870E-01   1.275198740453155E-01
   1.300198990204454E-01   1.325394565841684E-01   1.350765919022560E-01
   1.376291841624837E-01   1.401949390597621E-01   1.427713812544608E-01
   1.453558468422017E-01   1.479454758783655E-01   1.505372050058613E-01
   1.531277602404060E-01   1.557136499736241E-01   1.582911582606995E-01
   1.608563384661298E-01   1.634050073482669E-01   1.659327396708373E-01
   1.684348634374359E-01   1.709064558530665E-01   1.733423401251411E-01
   1.757370832248489E-01   1.780849947384415E-01   1.803801269466621E-01
   1.826162762791543E-01   1.847869862991692E-01   1.868855523820485E-01
   1.889050282587107E-01   1.908382346025070E-01   1.926777698441388E-01
   1.944160234046756E-01   1.960451915407629E-01   1.975572959986631E-01
   1.989442056744849E-01   2.001976614765053E-01   2.013093045815319E-01
   2.022707082703676E-01   2.030734135172308E-01   2.037089684939806E-01
   2.041689721317171E-01   2.044451218592784E-01   2.045292656097842E-01
   2.044134581521594E-01   2.040900217639245E-01   2.035516112139230E-01
   2.027912829684920E-01   2.018025684713504E-01   2.005795512756576E-01
   1.991169477258285E-01   1.974101907963964E-01   1.954555165951750E-01
   1.932500529280082E-01   1.907919092024710E-01   1.880802668181021E-01
   1.851154690514985E-01   1.818991092964099E-01   1.784341163627806E-01
   1.747248353756744E-01   1.707771026467788E-01   1.665983127198127E-01
   1.621974756190548E-01   1.575852621605615E-01   1.527740350219404E-01
   1.477778631131482E-01   1.426125166525881E-01   1.372954402353793E-01
   1.318457010905159E-01   1.262839096677290E-01   1.206321096810917E-01
   1.149136347733384E-01   1.091529290615793E-01   1.033753289914923E-01
   9.760680417322404E-02   9.187365520869284E-02   8.620216695734018E-02
   8.061821623587113E-02   7.514683361717979E-02   6.981171979325344E-02
   6.463471790409030E-02   5.963524431524264E-02   5.482968155363925E-02
   5.023073848507553E-02   4.584678433320546E-02   4.168116479062197E-02
   3.773151024364318E-02   3.398904800323167E-02   3.044274933138463E-02
   2.709538888959279E-02   2.395265419450282E-02   2.101879312505717E-02
   1.829655528907087E-02   1.578714764822553E-02   1.349020595498207E-02
   1.140378345420673E-02   9.524358167892932E-03   7.846859912507664E-03
   6.364717994932045E-03   5.069930295432457E-03   3.953154175992346E-03
   3.003819351957981E-03   2.210262537577556E-03   1.559883325505274E-03
   1.039320391511112E-03   6.346467339162221E-04   3.315822657277701E-04
   1.157198390023817E-04  -2.723918706376560E-05  -1.112302304902557E-04
  -1.495586590767872E-04  -1.546479121459221E-04  -1.377759870898054E-04
  -1.088212077017814E-04  -7.601662359790762E-05  -4.571900969779774E-05
  -2.219765031868937E-05  -7.448623861622261E-06  -1.040762190762656E-06
   2.775557561562891E-17   0.000000000000000E+00   0.000000000000000E+00
   0.000000000000000E+00   0.000000000000000E+00   0.000000000000000E+00
   0.000000000000000E+00   0.000000000000000E+00   0.000000000000000E+00
   0.000000000000000E+00   0.000000000000000E+00   0.000000000000000E+00
   0.000000000000000E+00   0.000000000000000E+00   0.000000000000000E+00
   0.000000000000000E+00   0.000000000000000E+00   0.000000000000000E+00
   0.000000000000000E+00   0.000000000000000E+00   0.000000000000000E+00
   0.000000000000000E+00   0.000000000000000E+00   0.000000000000000E+00
   0.000000000000000E+00   0.000000000000000E+00   0.000000000000000E+00
   0.000000000000000E+00   0.000000000000000E+00   0.000000000000000E+00
   0.000000000000000E+00   0.000000000000000E+00   0.000000000000000E+00
   0.000000000000000E+00   0.000000000000000E+00   0.000000000000000E+00
   0.000000000000000E+00   0.000000000000000E+00   0.000000000000000E+00
   0.000000000000000E+00   0.000000000000000E+00   0.000000000000000E+00
   0.000000000000000E+00   0.000000000000000E+00   0.000000000000000E+00
   0.000000000000000E+00   0.000000000000000E+00   0.000000000000000E+00
   0.000000000000000E+00   0.000000000000000E+00   0.000000000000000E+00
   0.000000000000000E+00   0.000000000000000E+00   0.000000000000000E+00
   0.000000000000000E+00   0.000000000000000E+00   0.000000000000000E+00
   0.000000000000000E+00   0.000000000000000E+00   0.000000000000000E+00
   0.000000000000000E+00   0.000000000000000E+00   0.000000000000000E+00
   0.000000000000000E+00   0.000000000000000E+00   0.000000000000000E+00
   0.000000000000000E+00   0.000000000000000E+00   0.000000000000000E+00
   0.000000000000000E+00   0.000000000000000E+00   0.000000000000000E+00
   0.000000000000000E+00   0.000000000000000E+00   0.000000000000000E+00
   0.000000000000000E+00   0.000000000000000E+00   0.000000000000000E+00
   0.000000000000000E+00   0.000000000000000E+00   0.000000000000000E+00
   0.000000000000000E+00   0.000000000000000E+00   0.000000000000000E+00
   0.000000000000000E+00   0.000000000000000E+00   0.000000000000000E+00
   0.000000000000000E+00   0.000000000000000E+00   0.000000000000000E+00
   0.000000000000000E+00   0.000000000000000E+00   0.000000000000000E+00
   0.000000000000000E+00   0.000000000000000E+00   0.000000000000000E+00
   0.000000000000000E+00   0.000000000000000E+00   0.000000000000000E+00
   0.000000000000000E+00   0.000000000000000E+00   0.000000000000000E+00
   0.000000000000000E+00   0.000000000000000E+00   0.000000000000000E+00
   0.000000000000000E+00   0.000000000000000E+00   0.000000000000000E+00
   0.000000000000000E+00   0.000000000000000E+00   0.000000000000000E+00
   0.000000000000000E+00   0.000000000000000E+00   0.000000000000000E+00
   0.000000000000000E+00   0.000000000000000E+00   0.000000000000000E+00
   0.000000000000000E+00   0.000000000000000E+00   0.000000000000000E+00
   0.000000000000000E+00   0.000000000000000E+00   0.000000000000000E+00
   0.000000000000000E+00   0.000000000000000E+00   0.000000000000000E+00
   0.000000000000000E+00   0.000000000000000E+00   0.000000000000000E+00
   0.000000000000000E+00   0.000000000000000E+00   0.000000000000000E+00
   0.000000000000000E+00   0.000000000000000E+00   0.000000000000000E+00
   0.000000000000000E+00   0.000000000000000E+00   0.000000000000000E+00
   0.000000000000000E+00   0.000000000000000E+00   0.000000000000000E+00
   0.000000000000000E+00   0.000000000000000E+00   0.000000000000000E+00
   0.000000000000000E+00   0.000000000000000E+00   0.000000000000000E+00
   0.000000000000000E+00   0.000000000000000E+00   0.000000000000000E+00
   0.000000000000000E+00   0.000000000000000E+00   0.000000000000000E+00
   0.000000000000000E+00   0.000000000000000E+00   0.000000000000000E+00
   0.000000000000000E+00   0.000000000000000E+00   0.000000000000000E+00
   0.000000000000000E+00   0.000000000000000E+00   0.000000000000000E+00
   0.000000000000000E+00   0.000000000000000E+00   0.000000000000000E+00
   0.000000000000000E+00   0.000000000000000E+00   0.000000000000000E+00
   0.000000000000000E+00   0.000000000000000E+00   0.000000000000000E+00
   0.000000000000000E+00   0.000000000000000E+00   0.000000000000000E+00
   0.000000000000000E+00   0.000000000000000E+00   0.000000000000000E+00
   0.000000000000000E+00   0.000000000000000E+00   0.000000000000000E+00
   0.000000000000000E+00   0.000000000000000E+00   0.000000000000000E+00
   0.000000000000000E+00   0.000000000000000E+00   0.000000000000000E+00
   0.000000000000000E+00   0.000000000000000E+00   0.000000000000000E+00
   0.000000000000000E+00   0.000000000000000E+00   0.000000000000000E+00
   0.000000000000000E+00   0.000000000000000E+00   0.000000000000000E+00
   0.000000000000000E+00   0.000000000000000E+00   0.000000000000000E+00
   0.000000000000000E+00   0.000000000000000E+00   0.000000000000000E+00
   0.000000000000000E+00   0.000000000000000E+00   0.000000000000000E+00
   0.000000000000000E+00   0.000000000000000E+00   0.000000000000000E+00
   0.000000000000000E+00   0.000000000000000E+00   0.000000000000000E+00
   0.000000000000000E+00   0.000000000000000E+00   0.000000000000000E+00
   0.000000000000000E+00   0.000000000000000E+00   0.000000000000000E+00
   0.000000000000000E+00   0.000000000000000E+00   0.000000000000000E+00
   0.000000000000000E+00   0.000000000000000E+00   0.000000000000000E+00
   0.000000000000000E+00   0.000000000000000E+00   0.000000000000000E+00
   0.000000000000000E+00   0.000000000000000E+00   0.000000000000000E+00
   0.000000000000000E+00   0.000000000000000E+00   0.000000000000000E+00
   0.000000000000000E+00   0.000000000000000E+00   0.000000000000000E+00
   0.000000000000000E+00   0.000000000000000E+00   0.000000000000000E+00
   0.000000000000000E+00   0.000000000000000E+00   0.000000000000000E+00
   0.000000000000000E+00   0.000000000000000E+00   0.000000000000000E+00
   0.000000000000000E+00   0.000000000000000E+00   0.000000000000000E+00
   0.000000000000000E+00   0.000000000000000E+00   0.000000000000000E+00
   0.000000000000000E+00   0.000000000000000E+00   0.000000000000000E+00
   0.000000000000000E+00   0.000000000000000E+00   0.000000000000000E+00
   0.000000000000000E+00   0.000000000000000E+00   0.000000000000000E+00
   0.000000000000000E+00   0.000000000000000E+00   0.000000000000000E+00
   0.000000000000000E+00   0.000000000000000E+00   0.000000000000000E+00
   0.000000000000000E+00   0.000000000000000E+00   0.000000000000000E+00
   0.000000000000000E+00   0.000000000000000E+00   0.000000000000000E+00
   0.000000000000000E+00   0.000000000000000E+00   0.000000000000000E+00
   0.000000000000000E+00   0.000000000000000E+00   0.000000000000000E+00
   0.000000000000000E+00   0.000000000000000E+00   0.000000000000000E+00
   0.000000000000000E+00   0.000000000000000E+00   0.000000000000000E+00
   0.000000000000000E+00   0.000000000000000E+00   0.000000000000000E+00
   0.000000000000000E+00   0.000000000000000E+00   0.000000000000000E+00
   0.000000000000000E+00   0.000000000000000E+00   0.000000000000000E+00
   0.000000000000000E+00   0.000000000000000E+00   0.000000000000000E+00
   0.000000000000000E+00   0.000000000000000E+00   0.000000000000000E+00
   0.000000000000000E+00   0.000000000000000E+00   0.000000000000000E+00
   0.000000000000000E+00   0.000000000000000E+00   0.000000000000000E+00
   0.000000000000000E+00   0.000000000000000E+00   0.000000000000000E+00
   0.000000000000000E+00   0.000000000000000E+00   0.000000000000000E+00
   0.000000000000000E+00   0.000000000000000E+00   0.000000000000000E+00
   0.000000000000000E+00   0.000000000000000E+00   0.000000000000000E+00
   0.000000000000000E+00   0.000000000000000E+00   0.000000000000000E+00
   0.000000000000000E+00   0.000000000000000E+00   0.000000000000000E+00
   0.000000000000000E+00   0.000000000000000E+00   0.000000000000000E+00
   0.000000000000000E+00   0.000000000000000E+00   0.000000000000000E+00
   0.000000000000000E+00   0.000000000000000E+00   0.000000000000000E+00
   0.000000000000000E+00   0.000000000000000E+00   0.000000000000000E+00
   0.000000000000000E+00   0.000000000000000E+00   0.000000000000000E+00
   0.000000000000000E+00   0.000000000000000E+00   0.000000000000000E+00
   0.000000000000000E+00   0.000000000000000E+00   0.000000000000000E+00
   0.000000000000000E+00   0.000000000000000E+00   0.000000000000000E+00
      </PP_QIJL.3.4.0>
      <PP_QIJL.3.4.2 first_index="3" second_index="4" composite_index="9" angular_momentum="2" size="1095">
   2.838461540861286E-15   2.983992569894844E-15   3.136985133861770E-15
   3.297821793801201E-15   3.466904725073289E-15   3.644656723006660E-15
   3.831522260106584E-15   4.027968597467339E-15   4.234486953167823E-15
   4.451593730572202E-15   4.679831809606667E-15   4.919771904241493E-15
   5.172013989572599E-15   5.437188802071112E-15   5.715959416752436E-15
   6.009022905208253E-15   6.317112078647840E-15   6.640997320306858E-15
   6.981488511805708E-15   7.339437058274478E-15   7.715738017307961E-15
   8.111332337074712E-15   8.527209209176232E-15   8.964408542139800E-15
   9.424023561729991E-15   9.907203544580701E-15   1.041515669198371E-14
   1.094915315101925E-14   1.151052819058318E-14   1.210068554025270E-14
   1.272110090033874E-14   1.337332563190303E-14   1.405899063596590E-14
   1.477981043160531E-14   1.553758744314451E-14   1.633421650714793E-14
   1.717168961049586E-14   1.805210087138526E-14   1.897765177571143E-14
   1.995065668192506E-14   2.097354860812827E-14   2.204888531588202E-14
   2.317935570593616E-14   2.436778654187555E-14   2.561714951849473E-14
   2.693056869257492E-14   2.831132829464552E-14   2.976288094126241E-14
   3.128885626833827E-14   3.289307000711338E-14   3.457953352545975E-14
   3.635246385837904E-14   3.821629425277390E-14   4.017568525286071E-14
   4.223553635394368E-14   4.440099825368858E-14   4.667748573153322E-14
   4.907069118843828E-14   5.158659888083469E-14   5.423149988436124E-14
   5.701200782480668E-14   5.993507541559501E-14   6.300801184316373E-14
   6.623850104370832E-14   6.963462091699492E-14   7.320486352528292E-14
   7.695815632786865E-14   8.090388450434499E-14   8.505191442239645E-14
   8.941261830881425E-14   9.399690018541541E-14   9.881622313472584E-14
   1.038826379636011E-13   1.092088133364588E-13   1.148080674534755E-13
   1.206944013529506E-13   1.268825339211207E-13   1.333879386969596E-13
   1.402268825639967E-13   1.474164664259055E-13   1.549746679675645E-13
   1.629203866085253E-13   1.712734907612856E-13   1.800548675125404E-13
   1.892864748516421E-13   1.989913965768583E-13   2.091939000167331E-13
   2.199194967108739E-13   2.311950062019016E-13   2.430486230980775E-13
   2.555099875742893E-13   2.686102594876943E-13   2.823821962933408E-13
   2.968602349545945E-13   3.120805780531952E-13   3.280812843142459E-13
   3.449023637725128E-13   3.625858778179839E-13   3.811760443708552E-13
   4.007193484489432E-13   4.212646584039718E-13   4.428633481174184E-13
   4.655694254614380E-13   4.894396673460997E-13   5.145337616906207E-13
   5.409144566735745E-13   5.686477176353063E-13   5.978028920248641E-13
   6.284528828039044E-13   6.606743307411721E-13   6.945478060533573E-13
   7.301580098715627E-13   7.675939860371158E-13   8.069493437563320E-13
   8.483224916709837E-13   8.918168839297319E-13   9.375412788758658E-13
   9.856100109981632E-13   1.036143276824889E-12   1.089267435475820E-12
   1.145115324623787E-12   1.203826592655834E-12   1.265548047864524E-12
   1.330434025542562E-12   1.398646773898643E-12   1.470356859759463E-12
   1.545743595072409E-12   1.624995485275340E-12   1.708310700654609E-12
   1.795897571869970E-12   1.887975110885346E-12   1.984773558608132E-12
   2.086534960606315E-12   2.193513772342993E-12   2.305977495441718E-12
   2.424207346573485E-12   2.548498960638077E-12   2.679163129997919E-12
   2.816526581612901E-12   2.960932794019428E-12   3.112742856196376E-12
   3.272336370465698E-12   3.440112401685207E-12   3.616490475107004E-12
   3.801911625396692E-12   3.996839499436264E-12   4.201761515668350E-12
   4.417190082880592E-12   4.643663881477639E-12   4.881749210444677E-12
   5.132041403370202E-12   5.395166317069058E-12   5.671781896527723E-12
   5.962579820084973E-12   6.268287228961674E-12   6.589668545463995E-12
   6.927527384406757E-12   7.282708562535952E-12   7.656100210974991E-12
   8.048635995976781E-12   8.461297453534142E-12   8.895116443686479E-12
   9.351177730659247E-12   9.830621695287588E-12   1.033464718650675E-11
   1.086451451903818E-11   1.142154862476839E-11   1.200714236569835E-11
   1.262276001674869E-11   1.326994092712857E-11   1.395030336942232E-11
   1.466554858601997E-11   1.541746504300698E-11   1.620793290215145E-11
   1.703892872216967E-11   1.791253040102429E-11   1.883092237161497E-11
   1.979640106384944E-11   2.081138064675497E-11   2.187839906498654E-11
   2.300012438482397E-11   2.417936146552841E-11   2.541905897273487E-11
   2.672231675142025E-11   2.809239357688006E-11   2.953271530309307E-11
   3.104688342885098E-11   3.263868410306652E-11   3.431209759177990E-11
   3.607130823053325E-11   3.792071488699463E-11   3.986494195999677E-11
   4.190885094248480E-11   4.405755257728949E-11   4.631641963611649E-11
   4.869110035370079E-11   5.118753255072155E-11   5.381195848078067E-11
   5.657094043857283E-11   5.947137716826967E-11   6.252052111313934E-11
   6.572599654953876E-11   6.909581865060691E-11   7.263841352733180E-11
   7.636263929709516E-11   8.027780823236654E-11   8.439371004493435E-11
   8.872063636387537E-11   9.326940646847352E-11   9.805139434042123E-11
   1.030785571029334E-10   1.083634649178902E-10   1.139193324157400E-10
   1.197600517367540E-10   1.259002272662382E-10   1.323552121505370E-10
   1.391411466851401E-10   1.462749986708467E-10   1.537746058388992E-10
   1.616587204511456E-10   1.699470561867283E-10   1.786603374325395E-10
   1.878203511006461E-10   1.974500011022518E-10   2.075733656143760E-10
   2.182157572824060E-10   2.294037865090591E-10   2.411654279879406E-10
   2.535300906480583E-10   2.665286911841465E-10   2.801937313566048E-10
   2.945593792543341E-10   3.096615547235778E-10   3.255380191763664E-10
   3.422284700030704E-10   3.597746398250564E-10   3.782204008356196E-10
   3.976118744899638E-10   4.179975468184882E-10   4.394283896516258E-10
   4.619579880592449E-10   4.856426743232502E-10   5.105416687782002E-10
   5.367172278720764E-10   5.642347998172810E-10   5.931631882209438E-10
   6.235747241035852E-10   6.555454467360946E-10   6.891552937470745E-10
   7.244883009757439E-10   7.616328125699309E-10   8.006817018543480E-10
   8.417326035211786E-10   8.848881577233762E-10   9.302562666807732E-10
   9.779503644403658E-10   1.028089700465064E-09   1.080799637759660E-09
   1.136211966279211E-09   1.194465232403109E-09   1.255705085298316E-09
   1.320084641037461E-09   1.387764865381771E-09   1.458914976185565E-09
   1.533712866427978E-09   1.612345548929113E-09   1.695009623862108E-09
   1.781911770229390E-09   1.873269262531426E-09   1.969310513919112E-09
   2.070275647187109E-09   2.176417095035094E-09   2.288000231096825E-09
   2.405304033313982E-09   2.528621781312396E-09   2.658261789523258E-09
   2.794548177881254E-09   2.937821682025278E-09   3.088440505026237E-09
   3.246781212770053E-09   3.413239675232963E-09   3.588232056001064E-09
   3.772195852506188E-09   3.965590989577222E-09   4.168900969041231E-09
   4.382634078455422E-09   4.607324659783159E-09   4.843534450690867E-09
   5.091853978746220E-09   5.352904047501706E-09   5.627337281504197E-09
   5.915839760219676E-09   6.219132731976756E-09   6.537974417912087E-09
   6.873161902249639E-09   7.225533132277159E-09   7.595969004399523E-09
   7.985395574677851E-09   8.394786360896830E-09   8.825164788030587E-09
   9.277606738110238E-09   9.753243241400828E-09   1.025326330050660E-08
   1.077891686777416E-08   1.133151796005031E-08   1.191244794966171E-08
   1.252315901467897E-08   1.316517776033926E-08   1.384010904582356E-08
   1.454963998071389E-08   1.529554417372610E-08   1.607968606812194E-08
   1.690402577554484E-08   1.777062377493135E-08   1.868164619248796E-08
   1.963937019012734E-08   2.064618960225626E-08   2.170462098801134E-08
   2.281730985358096E-08   2.398703728843442E-08   2.521672697395731E-08
   2.650945234435207E-08   2.786844440131120E-08   2.929709971033681E-08
   3.079898894097937E-08   3.237786568070144E-08   3.403767592942240E-08
   3.578256792640687E-08   3.761690240631736E-08   3.954526367294991E-08
   4.157247088845616E-08   4.370359016149816E-08   4.594394723755414E-08
   4.829914078904671E-08   5.077505629468353E-08   5.337788087745582E-08
   5.611411866456991E-08   5.899060706269969E-08   6.201453380166262E-08
   6.519345493638174E-08   6.853531363337632E-08   7.204846001408867E-08
   7.574167207348479E-08   7.962417754741610E-08   8.370567690103766E-08
   8.799636759785372E-08   9.250696950590791E-08   9.724875177599200E-08
   1.022335606955569E-07   1.074738496270568E-07   1.129827096866610E-07
   1.187739027879108E-07   1.248618956734243E-07   1.312618961739026E-07
   1.379898910995250E-07   1.450626861069395E-07   1.524979477293726E-07
   1.603142472351539E-07   1.685311072588435E-07   1.771690500728664E-07
   1.862496492092691E-07   1.957955829447169E-07   2.058306909189716E-07
   2.163800338382331E-07   2.274699554419615E-07   2.391281487341849E-07
   2.513837245944453E-07   2.642672845307228E-07   2.778109969922952E-07
   2.920486775116898E-07   3.070158727968798E-07   3.227499495012213E-07
   3.392901874452708E-07   3.566778770645259E-07   3.749564227023840E-07
   3.941714503700142E-07   4.143709218390761E-07   4.356052535901175E-07
   4.579274425723245E-07   4.813931982586477E-07   5.060610812768275E-07
   5.319926490726049E-07   5.592526093577503E-07   5.879089808074547E-07
   6.180332628264222E-07   6.497006128972442E-07   6.829900340620326E-07
   7.179845710234014E-07   7.547715170430178E-07   7.934426308874139E-07
   8.340943649561354E-07   8.768281051082323E-07   9.217504227294035E-07
   9.689733395739501E-07   1.018614606159802E-06   1.070797994428229E-06
   1.125653605018379E-06   1.183318190702497E-06   1.243935495790324E-06
   1.307656613121489E-06   1.374640359230424E-06   1.445053668506305E-06
   1.519072007361488E-06   1.596879809819685E-06   1.678670934945124E-06
   1.764649147478996E-06   1.855028623461869E-06   1.950034480940747E-06
   2.049903338024223E-06   2.154883899313346E-06   2.265237571997301E-06
   2.381239113246141E-06   2.503177310964456E-06   2.631355698209457E-06
   2.766093304960859E-06   2.907725447179361E-06   3.056604556585424E-06
   3.213101051932642E-06   3.377604255266562E-06   3.550523353726197E-06
   3.732288411039965E-06   3.923351429608668E-06   4.124187466804061E-06
   4.335295807767490E-06   4.557201197562257E-06   4.790455135425472E-06
   5.035637235327965E-06   5.293356654649215E-06   5.564253595330282E-06
   5.849000881206534E-06   6.148305614546322E-06   6.462910917021992E-06
   6.793597757982983E-06   7.141186875309518E-06   7.506540793289369E-06
   7.890565942351204E-06   8.294214885370767E-06   8.718488656716437E-06
   9.164439218672148E-06   9.633172041996286E-06   1.012584881605189E-05
   1.064369029569148E-05   1.118797929115396E-05   1.176006380807785E-05
   1.236136034551893E-05   1.299335735987008E-05   1.365761890210270E-05
   1.435578843761902E-05   1.508959285798309E-05   1.586084669341576E-05
   1.667145653622071E-05   1.752342568550347E-05   1.841885902463088E-05
   1.935996814196853E-05   2.034907670781575E-05   2.138862611947204E-05
   2.248118142809573E-05   2.362943756077640E-05   2.483622585271614E-05
   2.610452090433385E-05   2.743744777974718E-05   2.883828956245324E-05
   3.031049528651052E-05   3.185768826111472E-05   3.348367480776540E-05
   3.519245342993740E-05   3.698822443672500E-05   3.887540004196664E-05
   4.085861496206243E-05   4.294273753667630E-05   4.513288139735758E-05
   4.743441771058192E-05   4.985298802304969E-05   5.239451773738395E-05
   5.506523024967693E-05   5.787166177923931E-05   6.082067692443875E-05
   6.391948497878749E-05   6.717565704385485E-05   7.059714397602234E-05
   7.419229520750124E-05   7.796987848204432E-05   8.193910054900437E-05
   8.610962886035429E-05   9.049161431810376E-05   9.509571512075661E-05
   9.993312176025587E-05   1.050155832232537E-04   1.103554344516432E-04
   1.159656251214044E-04   1.218597498003622E-04   1.280520795474380E-04
   1.345575950204774E-04   1.413920211609152E-04   1.485718635265652E-04
   1.561144463481065E-04   1.640379523864020E-04   1.723614646714922E-04
   1.811050102082908E-04   1.902896057354908E-04   1.999373056300090E-04
   2.100712520506284E-04   2.207157274204116E-04   2.318962093492808E-04
   2.436394281034941E-04   2.559734267322045E-04   2.689276239658065E-04
   2.825328800039699E-04   2.968215653176700E-04   3.118276325911696E-04
   3.275866919374181E-04   3.441360895224485E-04   3.615149897408691E-04
   3.797644610877893E-04   3.989275658790066E-04   4.190494539747795E-04
   4.401774606681989E-04   4.623612089037112E-04   4.856527159974583E-04
   5.101065050341158E-04   5.357797211222042E-04   5.627322526928342E-04
   5.910268580334962E-04   6.207292972521040E-04   6.519084698718132E-04
   6.846365582616177E-04   7.189891771130642E-04   7.550455291757500E-04
   7.928885674708431E-04   8.326051642036989E-04   8.742862866013885E-04
   9.180271799031720E-04   9.639275577354549E-04   1.012091800104967E-03
   1.062629159244811E-03   1.115653973550238E-03   1.171285889840978E-03
   1.229650094186333E-03   1.290877551528727E-03   1.355105254339110E-03
   1.422476480534385E-03   1.493141060882722E-03   1.567255656117236E-03
   1.644984043972070E-03   1.726497416345274E-03   1.811974686784345E-03
   1.901602808477022E-03   1.995577102917039E-03   2.094101599397240E-03
   2.197389385466382E-03   2.305662968461666E-03   2.419154648208471E-03
   2.538106900950113E-03   2.662772774540479E-03   2.793416294900874E-03
   2.930312883702020E-03   3.073749787194336E-03   3.224026516060248E-03
   3.381455296115872E-03   3.546361529630799E-03   3.719084266975331E-03
   3.899976688238753E-03   4.089406594387573E-03   4.287756907455800E-03
   4.495426179171487E-03   4.712829107330774E-03   4.940397059129637E-03
   5.178578600552793E-03   5.427840030801816E-03   5.688665920615040E-03
   5.961559653196001E-03   6.247043966316075E-03   6.545661494000712E-03
   6.857975306036168E-03   7.184569443350670E-03   7.526049447130491E-03
   7.883042879320032E-03   8.256199831935348E-03   8.646193422382362E-03
   9.053720271720295E-03   9.479500962544286E-03   9.924280472878338E-03
   1.038882858217163E-02   1.087394024517581E-02   1.138043592914900E-02
   1.190916190948212E-02   1.246099051847857E-02   1.303682034163073E-02
   1.363757635533880E-02   1.426420999959602E-02   1.491769917872916E-02
   1.559904818283058E-02   1.630928752204886E-02   1.704947366542216E-02
   1.782068867543912E-02   1.862403972900203E-02   1.946065851494485E-02
   2.033170049772538E-02   2.123834403637527E-02   2.218178934724492E-02
   2.316325729853713E-02   2.418398802408150E-02   2.524523934326141E-02
   2.634828497348368E-02   2.749441252106639E-02   2.868492123593329E-02
   2.992111951504088E-02   3.120432213903735E-02   3.253584722627028E-02
   3.391701288792566E-02   3.534913356781163E-02   3.683351605009996E-02
   3.837145511822096E-02   3.996422884808998E-02   4.161309351892770E-02
   4.331927812515131E-02   4.508397847316339E-02   4.690835084737124E-02
   4.879350523045284E-02   5.074049806375486E-02   5.275032453479770E-02
   5.482391038017979E-02   5.696210319374859E-02   5.916566323176166E-02
   6.143525370891477E-02   6.377143058159866E-02   6.617463181758000E-02
   6.864516615451166E-02   7.118320135329424E-02   7.378875195634585E-02
   7.646166656533158E-02   7.920161465786874E-02   8.200807296818309E-02
   8.488031146267518E-02   8.781737894786341E-02   9.081808835523267E-02
   9.388100175513882E-02   9.700441516009840E-02   1.001863431865492E-01
   1.034245036534667E-01   1.067163022060785E-01   1.100588170632946E-01
   1.134487839983251E-01   1.168825816732888E-01   1.203562174602929E-01
   1.238653138935073E-01   1.274050959090142E-01   1.309703790415982E-01
   1.345555587600775E-01   1.381546011350500E-01   1.417610350449510E-01
   1.453679461378790E-01   1.489679727775120E-01   1.525533042114696E-01
   1.561156812092986E-01   1.596463994247264E-01   1.631363157425446E-01
   1.665758578741560E-01   1.699550374671455E-01   1.732634669927573E-01
   1.764903806705894E-01   1.796246596816997E-01   1.826548619092350E-01
   1.855692564293004E-01   1.883558629535725E-01   1.910024963988161E-01
   1.934968167265396E-01   1.958263841581885E-01   1.979787198272316E-01
   1.999413718789247E-01   2.017019869713138E-01   2.032483870669957E-01
   2.045686513342933E-01   2.056512028989528E-01   2.064849001034091E-01
   2.070591318405519E-01   2.073639164332484E-01   2.073900034304345E-01
   2.071289775862758E-01   2.065733641819109E-01   2.057167347409662E-01
   2.045538120819950E-01   2.030805735450587E-01   2.012943511278626E-01
   1.991939271714337E-01   1.967796241486718E-01   1.940533870337590E-01
   1.910188566690185E-01   1.876814325009631E-01   1.840483230316323E-01
   1.801285823272461E-01   1.759331309459479E-01   1.714747596918048E-01
   1.667681146745351E-01   1.618296622544740E-01   1.566776325798585E-01
   1.513319405777410E-01   1.458140834386955E-01   1.401470138357266E-01
   1.343549883351853E-01   1.284633906862331E-01   1.224985299086599E-01
   1.164874133286144E-01   1.104574949288806E-01   1.044363995752189E-01
   9.845162384281765E-02   9.253021428755380E-02   8.669842407692324E-02
   8.098134890843939E-02   7.540254309557706E-02   6.998361659351157E-02
   6.474381357550239E-02   5.969957296948331E-02   5.486407114573340E-02
   5.024674674362115E-02   4.585280748324137E-02   4.168271878476151E-02
   3.773167418691380E-02   3.398904800323167E-02   3.044274933138463E-02
   2.709538888959279E-02   2.395265419450282E-02   2.101879312505717E-02
   1.829655528907087E-02   1.578714764822553E-02   1.349020595498207E-02
   1.140378345420673E-02   9.524358167892932E-03   7.846859912507664E-03
   6.364717994932045E-03   5.069930295432457E-03   3.953154175992346E-03
   3.003819351957981E-03   2.210262537577556E-03   1.559883325505274E-03
   1.039320391511112E-03   6.346467339162221E-04   3.315822657277701E-04
   1.157198390023817E-04  -2.723918706376560E-05  -1.112302304902557E-04
  -1.495586590767872E-04  -1.546479121459221E-04  -1.377759870898054E-04
  -1.088212077017814E-04  -7.601662359790762E-05  -4.571900969779774E-05
  -2.219765031868937E-05  -7.448623861622261E-06  -1.040762190762656E-06
   2.775557561562891E-17   0.000000000000000E+00   0.000000000000000E+00
   0.000000000000000E+00   0.000000000000000E+00   0.000000000000000E+00
   0.000000000000000E+00   0.000000000000000E+00   0.000000000000000E+00
   0.000000000000000E+00   0.000000000000000E+00   0.000000000000000E+00
   0.000000000000000E+00   0.000000000000000E+00   0.000000000000000E+00
   0.000000000000000E+00   0.000000000000000E+00   0.000000000000000E+00
   0.000000000000000E+00   0.000000000000000E+00   0.000000000000000E+00
   0.000000000000000E+00   0.000000000000000E+00   0.000000000000000E+00
   0.000000000000000E+00   0.000000000000000E+00   0.000000000000000E+00
   0.000000000000000E+00   0.000000000000000E+00   0.000000000000000E+00
   0.000000000000000E+00   0.000000000000000E+00   0.000000000000000E+00
   0.000000000000000E+00   0.000000000000000E+00   0.000000000000000E+00
   0.000000000000000E+00   0.000000000000000E+00   0.000000000000000E+00
   0.000000000000000E+00   0.000000000000000E+00   0.000000000000000E+00
   0.000000000000000E+00   0.000000000000000E+00   0.000000000000000E+00
   0.000000000000000E+00   0.000000000000000E+00   0.000000000000000E+00
   0.000000000000000E+00   0.000000000000000E+00   0.000000000000000E+00
   0.000000000000000E+00   0.000000000000000E+00   0.000000000000000E+00
   0.000000000000000E+00   0.000000000000000E+00   0.000000000000000E+00
   0.000000000000000E+00   0.000000000000000E+00   0.000000000000000E+00
   0.000000000000000E+00   0.000000000000000E+00   0.000000000000000E+00
   0.000000000000000E+00   0.000000000000000E+00   0.000000000000000E+00
   0.000000000000000E+00   0.000000000000000E+00   0.000000000000000E+00
   0.000000000000000E+00   0.000000000000000E+00   0.000000000000000E+00
   0.000000000000000E+00   0.000000000000000E+00   0.000000000000000E+00
   0.000000000000000E+00   0.000000000000000E+00   0.000000000000000E+00
   0.000000000000000E+00   0.000000000000000E+00   0.000000000000000E+00
   0.000000000000000E+00   0.000000000000000E+00   0.000000000000000E+00
   0.000000000000000E+00   0.000000000000000E+00   0.000000000000000E+00
   0.000000000000000E+00   0.000000000000000E+00   0.000000000000000E+00
   0.000000000000000E+00   0.000000000000000E+00   0.000000000000000E+00
   0.000000000000000E+00   0.000000000000000E+00   0.000000000000000E+00
   0.000000000000000E+00   0.000000000000000E+00   0.000000000000000E+00
   0.000000000000000E+00   0.000000000000000E+00   0.000000000000000E+00
   0.000000000000000E+00   0.000000000000000E+00   0.000000000000000E+00
   0.000000000000000E+00   0.000000000000000E+00   0.000000000000000E+00
   0.000000000000000E+00   0.000000000000000E+00   0.000000000000000E+00
   0.000000000000000E+00   0.000000000000000E+00   0.000000000000000E+00
   0.000000000000000E+00   0.000000000000000E+00   0.000000000000000E+00
   0.000000000000000E+00   0.000000000000000E+00   0.000000000000000E+00
   0.000000000000000E+00   0.000000000000000E+00   0.000000000000000E+00
   0.000000000000000E+00   0.000000000000000E+00   0.000000000000000E+00
   0.000000000000000E+00   0.000000000000000E+00   0.000000000000000E+00
   0.000000000000000E+00   0.000000000000000E+00   0.000000000000000E+00
   0.000000000000000E+00   0.000000000000000E+00   0.000000000000000E+00
   0.000000000000000E+00   0.000000000000000E+00   0.000000000000000E+00
   0.000000000000000E+00   0.000000000000000E+00   0.000000000000000E+00
   0.000000000000000E+00   0.000000000000000E+00   0.000000000000000E+00
   0.000000000000000E+00   0.000000000000000E+00   0.000000000000000E+00
   0.000000000000000E+00   0.000000000000000E+00   0.000000000000000E+00
   0.000000000000000E+00   0.000000000000000E+00   0.000000000000000E+00
   0.000000000000000E+00   0.000000000000000E+00   0.000000000000000E+00
   0.000000000000000E+00   0.000000000000000E+00   0.000000000000000E+00
   0.000000000000000E+00   0.000000000000000E+00   0.000000000000000E+00
   0.000000000000000E+00   0.000000000000000E+00   0.000000000000000E+00
   0.000000000000000E+00   0.000000000000000E+00   0.000000000000000E+00
   0.000000000000000E+00   0.000000000000000E+00   0.000000000000000E+00
   0.000000000000000E+00   0.000000000000000E+00   0.000000000000000E+00
   0.000000000000000E+00   0.000000000000000E+00   0.000000000000000E+00
   0.000000000000000E+00   0.000000000000000E+00   0.000000000000000E+00
   0.000000000000000E+00   0.000000000000000E+00   0.000000000000000E+00
   0.000000000000000E+00   0.000000000000000E+00   0.000000000000000E+00
   0.000000000000000E+00   0.000000000000000E+00   0.000000000000000E+00
   0.000000000000000E+00   0.000000000000000E+00   0.000000000000000E+00
   0.000000000000000E+00   0.000000000000000E+00   0.000000000000000E+00
   0.000000000000000E+00   0.000000000000000E+00   0.000000000000000E+00
   0.000000000000000E+00   0.000000000000000E+00   0.000000000000000E+00
   0.000000000000000E+00   0.000000000000000E+00   0.000000000000000E+00
   0.000000000000000E+00   0.000000000000000E+00   0.000000000000000E+00
   0.000000000000000E+00   0.000000000000000E+00   0.000000000000000E+00
   0.000000000000000E+00   0.000000000000000E+00   0.000000000000000E+00
   0.000000000000000E+00   0.000000000000000E+00   0.000000000000000E+00
   0.000000000000000E+00   0.000000000000000E+00   0.000000000000000E+00
   0.000000000000000E+00   0.000000000000000E+00   0.000000000000000E+00
   0.000000000000000E+00   0.000000000000000E+00   0.000000000000000E+00
   0.000000000000000E+00   0.000000000000000E+00   0.000000000000000E+00
   0.000000000000000E+00   0.000000000000000E+00   0.000000000000000E+00
   0.000000000000000E+00   0.000000000000000E+00   0.000000000000000E+00
   0.000000000000000E+00   0.000000000000000E+00   0.000000000000000E+00
   0.000000000000000E+00   0.000000000000000E+00   0.000000000000000E+00
   0.000000000000000E+00   0.000000000000000E+00   0.000000000000000E+00
   0.000000000000000E+00   0.000000000000000E+00   0.000000000000000E+00
   0.000000000000000E+00   0.000000000000000E+00   0.000000000000000E+00
   0.000000000000000E+00   0.000000000000000E+00   0.000000000000000E+00
   0.000000000000000E+00   0.000000000000000E+00   0.000000000000000E+00
   0.000000000000000E+00   0.000000000000000E+00   0.000000000000000E+00
   0.000000000000000E+00   0.000000000000000E+00   0.000000000000000E+00
   0.000000000000000E+00   0.000000000000000E+00   0.000000000000000E+00
   0.000000000000000E+00   0.000000000000000E+00   0.000000000000000E+00
   0.000000000000000E+00   0.000000000000000E+00   0.000000000000000E+00
   0.000000000000000E+00   0.000000000000000E+00   0.000000000000000E+00
   0.000000000000000E+00   0.000000000000000E+00   0.000000000000000E+00
   0.000000000000000E+00   0.000000000000000E+00   0.000000000000000E+00
   0.000000000000000E+00   0.000000000000000E+00   0.000000000000000E+00
   0.000000000000000E+00   0.000000000000000E+00   0.000000000000000E+00
   0.000000000000000E+00   0.000000000000000E+00   0.000000000000000E+00
   0.000000000000000E+00   0.000000000000000E+00   0.000000000000000E+00
   0.000000000000000E+00   0.000000000000000E+00   0.000000000000000E+00
   0.000000000000000E+00   0.000000000000000E+00   0.000000000000000E+00
   0.000000000000000E+00   0.000000000000000E+00   0.000000000000000E+00
   0.000000000000000E+00   0.000000000000000E+00   0.000000000000000E+00
   0.000000000000000E+00   0.000000000000000E+00   0.000000000000000E+00
   0.000000000000000E+00   0.000000000000000E+00   0.000000000000000E+00
   0.000000000000000E+00   0.000000000000000E+00   0.000000000000000E+00
   0.000000000000000E+00   0.000000000000000E+00   0.000000000000000E+00
   0.000000000000000E+00   0.000000000000000E+00   0.000000000000000E+00
   0.000000000000000E+00   0.000000000000000E+00   0.000000000000000E+00
   0.000000000000000E+00   0.000000000000000E+00   0.000000000000000E+00
   0.000000000000000E+00   0.000000000000000E+00   0.000000000000000E+00
   0.000000000000000E+00   0.000000000000000E+00   0.000000000000000E+00
   0.000000000000000E+00   0.000000000000000E+00   0.000000000000000E+00
   0.000000000000000E+00   0.000000000000000E+00   0.000000000000000E+00
   0.000000000000000E+00   0.000000000000000E+00   0.000000000000000E+00
   0.000000000000000E+00   0.000000000000000E+00   0.000000000000000E+00
   0.000000000000000E+00   0.000000000000000E+00   0.000000000000000E+00
      </PP_QIJL.3.4.2>
      <PP_QIJL.4.4.0 first_index="4" second_index="4" composite_index="10" angular_momentum="0" size="1095">
   1.377806567957850E-08   1.412685906849875E-08   1.448448220387452E-08
   1.485115861179007E-08   1.522711747691891E-08   1.561259378577147E-08
   1.600782847356944E-08   1.641306857483795E-08   1.682856737781019E-08
   1.725458458274084E-08   1.769138646422694E-08   1.813924603763823E-08
   1.859844322976058E-08   1.906926505375923E-08   1.955200578857142E-08
   2.004696716284003E-08   2.055445854350388E-08   2.107479712916200E-08
   2.160830814833297E-08   2.215532506273336E-08   2.271618977570193E-08
   2.329125284590027E-08   2.388087370642331E-08   2.448542088945658E-08
   2.510527225662079E-08   2.574081523514733E-08   2.639244706003294E-08
   2.706057502232433E-08   2.774561672368810E-08   2.844800033742555E-08
   2.916816487609434E-08   2.990656046590577E-08   3.066364862806802E-08
   3.143990256725174E-08   3.223580746735838E-08   3.305186079477544E-08
   3.388857260930908E-08   3.474646588298785E-08   3.562607682693705E-08
   3.652795522652799E-08   3.745266478501120E-08   3.840078347584925E-08
   3.937290390396867E-08   4.036963367615695E-08   4.139159578083649E-08
   4.243942897745194E-08   4.351378819571553E-08   4.461534494495908E-08
   4.574478773384872E-08   4.690282250072507E-08   4.809017305483687E-08
   4.930758152874517E-08   5.055580884217975E-08   5.183563517763818E-08
   5.314786046802513E-08   5.449330489663539E-08   5.587280940979485E-08
   5.728723624247874E-08   5.873746945723577E-08   6.022441549675575E-08
   6.174900375042446E-08   6.331218713522199E-08   6.491494269132594E-08
   6.655827219279249E-08   6.824320277369727E-08   6.997078757012624E-08
   7.174210637841920E-08   7.355826633007698E-08   7.542040258375308E-08
   7.732967903476447E-08   7.928728904256205E-08   8.129445617661844E-08
   8.335243498119744E-08   8.546251175948328E-08   8.762600537756159E-08
   8.984426808875089E-08   9.211868637880412E-08   9.445068183250568E-08
   9.684171202220619E-08   9.929327141885154E-08   1.018068923260730E-07
   1.043841458379257E-07   1.070266428208709E-07   1.097360349206180E-07
   1.125140155944552E-07   1.153623211697117E-07   1.182827319290170E-07
   1.212770732230330E-07   1.243472166113541E-07   1.274950810322909E-07
   1.307226340022650E-07   1.340318928455676E-07   1.374249259552503E-07
   1.409038540859333E-07   1.444708516793435E-07   1.481281482234060E-07
   1.518780296457437E-07   1.557228397424507E-07   1.596649816430375E-07
   1.637069193124609E-07   1.678511790911749E-07   1.721003512741725E-07
   1.764570917299976E-07   1.809241235607433E-07   1.855042388040742E-07
   1.902003001783326E-07   1.950152428718249E-07   1.999520763774016E-07
   2.050138863734813E-07   2.102038366526925E-07   2.155251710993373E-07
   2.209812157169163E-07   2.265753807069798E-07   2.323111626006046E-07
   2.381921464438308E-07   2.442220080384188E-07   2.504045162393356E-07
   2.567435353103991E-07   2.632430273395557E-07   2.699070547153027E-07
   2.767397826657971E-07   2.837454818622451E-07   2.909285310881951E-07
   2.982934199764035E-07   3.058447518149856E-07   3.135872464246004E-07
   3.215257431084737E-07   3.296652036771020E-07   3.380107155495221E-07
   3.465674949330954E-07   3.553408900837798E-07   3.643363846489419E-07
   3.735596010947899E-07   3.830163042205696E-07   3.927124047617265E-07
   4.026539630842740E-07   4.128471929726913E-07   4.232984655137071E-07
   4.340143130784014E-07   4.450014334051167E-07   4.562666937857198E-07
   4.678171353578462E-07   4.796599775057970E-07   4.918026223728449E-07
   5.042526594877702E-07   5.170178705085107E-07   5.301062340859026E-07
   5.435259308505426E-07   5.572853485258901E-07   5.713930871708116E-07
   5.858579645548296E-07   6.006890216694528E-07   6.158955283790198E-07
   6.314869892145929E-07   6.474731493145260E-07   6.638640005154070E-07
   6.806697875972002E-07   6.979010146864778E-07   7.155684518217452E-07
   7.336831416849728E-07   7.522564065035202E-07   7.712998551267946E-07
   7.908253902820424E-07   8.108452160138198E-07   8.313718453117997E-07
   8.524181079316486E-07   8.739971584139207E-07   8.961224843059141E-07
   9.188079145916751E-07   9.420676283354101E-07   9.659161635436726E-07
   9.903684262519352E-07   1.015439699841139E-06   1.041145654590115E-06
   1.067502357469814E-06   1.094526282185450E-06   1.122234319472898E-06
   1.150643787655689E-06   1.179772443469281E-06   1.209638493159338E-06
   1.240260603860919E-06   1.271657915265783E-06   1.303850051584981E-06
   1.336857133814314E-06   1.370699792310271E-06   1.405399179684286E-06
   1.440976984023471E-06   1.477455442445940E-06   1.514857354999329E-06
   1.553206098911135E-06   1.592525643199752E-06   1.632840563655437E-06
   1.674176058200439E-06   1.716557962637989E-06   1.760012766799968E-06
   1.804567631103284E-06   1.850250403525431E-06   1.897089637009697E-06
   1.945114607310992E-06   1.994355331293449E-06   2.044842585691126E-06
   2.096607926343718E-06   2.149683707919103E-06   2.204103104135180E-06
   2.259900128493613E-06   2.317109655538351E-06   2.375767442652372E-06
   2.435910152406085E-06   2.497575375471508E-06   2.560801654116479E-06
   2.625628506293518E-06   2.692096450338570E-06   2.760247030294847E-06
   2.830122841877758E-06   2.901767559097095E-06   2.975225961553041E-06
   3.050543962423252E-06   3.127768637158229E-06   3.206948252903164E-06
   3.288132298664509E-06   3.371371516240086E-06   3.456717931932254E-06
   3.544224889063676E-06   3.633947081316249E-06   3.725940586913921E-06
   3.820262903670667E-06   3.916972984925777E-06   4.016131276388597E-06
   4.117799753915985E-06   4.222041962246012E-06   4.328923054711989E-06
   4.438509833961915E-06   4.550870793708444E-06   4.666076161535729E-06
   4.784197942789801E-06   4.905309965579758E-06   5.029487926918238E-06
   5.156809440029550E-06   5.287354082855394E-06   5.421203447788328E-06
   5.558441192663910E-06   5.699153093043773E-06   5.843427095821789E-06
   5.991353374187215E-06   6.143024383978990E-06   6.298534921466347E-06
   6.457982182591994E-06   6.621465823714670E-06   6.789088023889208E-06
   6.960953548722931E-06   7.137169815848212E-06   7.317846962052236E-06
   7.503097912105743E-06   7.693038449333888E-06   7.887787287973217E-06
   8.087466147359928E-06   8.292199827995906E-06   8.502116289539804E-06
   8.717346730772139E-06   8.938025671584212E-06   9.164291037042001E-06
   9.396284243577719E-06   9.634150287362673E-06   9.878037834916751E-06
   1.012809931601112E-05   1.038449101892199E-05   1.064737318809521E-05
   1.091691012428240E-05   1.119327028721139E-05   1.147662640085497E-05
   1.176715556136356E-05   1.206503934772954E-05   1.237046393525201E-05
   1.268362021187294E-05   1.300470389745746E-05   1.333391566609256E-05
   1.367146127148083E-05   1.401755167550713E-05   1.437240318005895E-05
   1.473623756218237E-05   1.510928221265811E-05   1.549177027808437E-05
   1.588394080655471E-05   1.628603889702248E-05   1.669831585244462E-05
   1.712102933680041E-05   1.755444353608365E-05   1.799882932336802E-05
   1.845446442804933E-05   1.892163360936996E-05   1.940062883433359E-05
   1.989174946012187E-05   2.039530242112607E-05   2.091160242071109E-05
   2.144097212783124E-05   2.198374237862018E-05   2.254025238308139E-05
   2.311084993700765E-05   2.369589163926187E-05   2.429574311455501E-05
   2.491077924185963E-05   2.554138438860222E-05   2.618795265077952E-05
   2.685088809914943E-05   2.753060503164965E-05   2.822752823220123E-05
   2.894209323605916E-05   2.967474660187457E-05   3.042594619063895E-05
   3.119616145168387E-05   3.198587371591465E-05   3.279557649646080E-05
   3.362577579693057E-05   3.447699042746184E-05   3.534975232876652E-05
   3.624460690436983E-05   3.716211336125235E-05   3.810284505910630E-05
   3.906738986842434E-05   4.005635053764371E-05   4.107034506957418E-05
   4.211000710734504E-05   4.317598633011070E-05   4.426894885876195E-05
   4.538957767189548E-05   4.653857303230062E-05   4.771665292422839E-05
   4.892455350171626E-05   5.016302954824665E-05   5.143285494802578E-05
   5.273482316917660E-05   5.406974775914510E-05   5.543846285263030E-05
   5.684182369235254E-05   5.828070716298434E-05   5.975601233857675E-05
   6.126866104382010E-05   6.281959842949032E-05   6.440979356243675E-05
   6.604024003047950E-05   6.771195656259248E-05   6.942598766475577E-05
   7.118340427187559E-05   7.298530441617442E-05   7.483281391246739E-05
   7.672708706075197E-05   7.866930736654430E-05   8.066068827941288E-05
   8.270247395016642E-05   8.479594000716591E-05   8.694239435224394E-05
   8.914317797672317E-05   9.139966579804297E-05   9.371326751751120E-05
   9.608542849971378E-05   9.851763067412857E-05   1.010113934594997E-04
   1.035682747115487E-04   1.061898716946085E-04   1.088778220777802E-04
   1.116338049562351E-04   1.144595418982871E-04   1.173567980188911E-04
   1.203273830802273E-04   1.233731526200537E-04   1.264960091085271E-04
   1.296979031342035E-04   1.329808346199563E-04   1.363468540695613E-04
   1.397980638457192E-04   1.433366194803070E-04   1.469647310176635E-04
   1.506846643917444E-04   1.544987428379918E-04   1.584093483407917E-04
   1.624189231174141E-04   1.665299711393459E-04   1.707450596919599E-04
   1.750668209734774E-04   1.794979537342119E-04   1.840412249571014E-04
   1.886994715805634E-04   1.934756022647357E-04   1.983725992021860E-04
   2.033935199742054E-04   2.085414994538250E-04   2.138197517567277E-04
   2.192315722412474E-04   2.247803395586886E-04   2.304695177552207E-04
   2.363026584266368E-04   2.422834029272975E-04   2.484154846346097E-04
   2.547027312704307E-04   2.611490672808155E-04   2.677585162755610E-04
   2.745352035290418E-04   2.814833585438580E-04   2.886073176788663E-04
   2.959115268431941E-04   3.034005442578776E-04   3.110790432868094E-04
   3.189518153387117E-04   3.270237728419094E-04   3.352999522937026E-04
   3.437855173861958E-04   3.524857622104789E-04   3.614061145410984E-04
   3.705521392028169E-04   3.799295415216924E-04   3.895441708625644E-04
   3.994020242550910E-04   4.095092501105136E-04   4.198721520314036E-04
   4.304971927166766E-04   4.413909979642303E-04   4.525603607736108E-04
   4.640122455511653E-04   4.757537924202151E-04   4.877923216388225E-04
   5.001353381277967E-04   5.127905361116544E-04   5.257658038752861E-04
   5.390692286391872E-04   5.527091015561397E-04   5.666939228323245E-04
   5.810324069759037E-04   5.957334881761735E-04   6.108063258164954E-04
   6.262603101242398E-04   6.421050679610903E-04   6.583504687571206E-04
   6.750066305921186E-04   6.920839264277488E-04   7.095929904941911E-04
   7.275447248349941E-04   7.459503060139711E-04   7.648211919880268E-04
   7.841691291499355E-04   8.040061595451370E-04   8.243446282667371E-04
   8.451971910329815E-04   8.665768219515566E-04   8.884968214752060E-04
   9.109708245531930E-04   9.340128089832894E-04   9.576371039690517E-04
   9.818583988872266E-04   1.006691752270293E-03   1.032152601009187E-03
   1.058256769781406E-03   1.085020480709797E-03   1.112460363257401E-03
   1.140593464363914E-03   1.169437258829375E-03   1.199009659950822E-03
   1.229329030417812E-03   1.260414193472740E-03   1.292284444342121E-03
   1.324959561945007E-03   1.358459820884917E-03   1.392806003731749E-03
   1.428019413600231E-03   1.464121887031691E-03   1.501135807185939E-03
   1.539084117350254E-03   1.577990334772577E-03   1.617878564826104E-03
   1.658773515512684E-03   1.700700512312441E-03   1.743685513387267E-03
   1.787755125145910E-03   1.832936618178473E-03   1.879257943568380E-03
   1.926747749589840E-03   1.975435398799081E-03   2.025350985527695E-03
   2.076525353786518E-03   2.128990115588685E-03   2.182777669700508E-03
   2.237921220828982E-03   2.294454799254863E-03   2.352413280920226E-03
   2.411832407979732E-03   2.472748809824691E-03   2.535200024589223E-03
   2.599224521147919E-03   2.664861721614301E-03   2.732152024349686E-03
   2.801136827491911E-03   2.871858553013490E-03   2.944360671318852E-03
   3.018687726390186E-03   3.094885361491620E-03   3.173000345441259E-03
   3.253080599460706E-03   3.335175224611611E-03   3.419334529828656E-03
   3.505610060558484E-03   3.594054628013738E-03   3.684722339051458E-03
   3.777668626684807E-03   3.872950281236901E-03   3.970625482145430E-03
   4.070753830426374E-03   4.173396381804906E-03   4.278615680521277E-03
   4.386475793818968E-03   4.497042347122279E-03   4.610382559909750E-03
   4.726565282289528E-03   4.845661032282178E-03   4.967742033815708E-03
   5.092882255437166E-03   5.221157449744102E-03   5.352645193538584E-03
   5.487424928705573E-03   5.625578003816216E-03   5.767187716455957E-03
   5.912339356275831E-03   6.061120248764269E-03   6.213619799735280E-03
   6.369929540527280E-03   6.530143173905522E-03   6.694356620658959E-03
   6.862668066880697E-03   7.035178011919165E-03   7.211989316984654E-03
   7.393207254393875E-03   7.578939557432253E-03   7.769296470811116E-03
   7.964390801693864E-03   8.164337971261888E-03   8.369256066787834E-03
   8.579265894179748E-03   8.794491030955833E-03   9.015057879605293E-03
   9.241095721285874E-03   9.472736769804185E-03   9.710116225819179E-03
   9.953372331203773E-03   1.020264642349347E-02   1.045808299034404E-02
   1.071982972391398E-02   1.098803757507940E-02   1.126286080738133E-02
   1.154445705059714E-02   1.183298735381789E-02   1.212861623790498E-02
   1.243151174718792E-02   1.274184550025471E-02   1.305979273967428E-02
   1.338553238047793E-02   1.371924705721338E-02   1.406112316937075E-02
   1.441135092496456E-02   1.477012438203990E-02   1.513764148785328E-02
   1.551410411546103E-02   1.589971809742836E-02   1.629469325635120E-02
   1.669924343186206E-02   1.711358650376646E-02   1.753794441093326E-02
   1.797254316553504E-02   1.841761286220728E-02   1.887338768166590E-02
   1.934010588829102E-02   1.981800982115275E-02   2.030734587791920E-02
   2.080836449105043E-02   2.132132009564347E-02   2.184647108825156E-02
   2.238407977595892E-02   2.293441231494524E-02   2.349773863772701E-02
   2.407433236821196E-02   2.466447072364908E-02   2.526843440250190E-02
   2.588650745721308E-02   2.651897715076695E-02   2.716613379589269E-02
   2.782827057568214E-02   2.850568334432728E-02   2.919867040660707E-02
   2.990753227467748E-02   3.063257140063825E-02   3.137409188326599E-02
   3.213239914721805E-02   3.290779959292080E-02   3.370060021526355E-02
   3.451110818912412E-02   3.533963041965208E-02   3.618647305513600E-02
   3.705194096017535E-02   3.793633714677216E-02   3.883996216084922E-02
   3.976311342159008E-02   4.070608451088695E-02   4.166916441006759E-02
   4.265263668096133E-02   4.365677858825169E-02   4.468186015995039E-02
   4.572814318272053E-02   4.679588012866774E-02   4.788531301011677E-02
   4.899667215879284E-02   5.013017492573543E-02   5.128602429819046E-02
   5.246440742965153E-02   5.366549407915944E-02   5.488943495592190E-02
   5.613635996527999E-02   5.740637635203783E-02   5.869956673717527E-02
   6.001598704399729E-02   6.135566430983238E-02   6.271859437948123E-02
   6.410473947674575E-02   6.551402565053008E-02   6.694634009221817E-02
   6.840152832128911E-02   6.987939123644550E-02   7.137968202990590E-02
   7.290210296295131E-02   7.444630200133168E-02   7.601186930973328E-02
   7.759833360518995E-02   7.920515837010346E-02   8.083173792641869E-02
   8.247739337349810E-02   8.414136839336014E-02   8.582282492819367E-02
   8.752083873645801E-02   8.923439483541837E-02   9.096238283967342E-02
   9.270359220711066E-02   9.445670740578170E-02   9.622030301744673E-02
   9.799283879598555E-02   9.977265470154204E-02   1.015579659341528E-01
   1.033468579937197E-01   1.051372817965419E-01   1.069270488821957E-01
   1.087138267483902E-01   1.104951343554944E-01   1.122683378467399E-01
   1.140306465346654E-01   1.157791092091342E-01   1.175106108272638E-01
   1.192218696507973E-01   1.209094349018066E-01   1.225696850131526E-01
   1.241988265557317E-01   1.257928939302414E-01   1.273477499168978E-01
   1.288590871821763E-01   1.303224308471808E-01   1.317331422275419E-01
   1.330864238597420E-01   1.343773259333287E-01   1.356007542524741E-01
   1.367514798536478E-01   1.378241504085875E-01   1.388133035431355E-01
   1.397133822026319E-01   1.405187521931934E-01   1.412237220251459E-01
   1.418225651798131E-01   1.423095449135530E-01   1.426789417030379E-01
   1.429250834230012E-01   1.430423783316573E-01   1.430253509194126E-01
   1.428686806529390E-01   1.425672436188175E-01   1.421161570383964E-01
   1.415108265878830E-01   1.407469964146345E-01   1.398208016918044E-01
   1.387288234986247E-01   1.374681457524168E-01   1.360364138507058E-01
   1.344318946074747E-01   1.326535369865841E-01   1.307010330478049E-01
   1.285748784270211E-01   1.262764315723064E-01   1.238079708524269E-01
   1.211727485446341E-01   1.183750405954912E-01   1.154201909333058E-01
   1.123146489951556E-01   1.090659990176088E-01   1.056829795304283E-01
   1.021754913896932E-01   9.855459259419598E-02   9.483247805037902E-02
   9.102244239082928E-02   8.713882391410001E-02   8.319692770469385E-02
   7.921292601713067E-02   7.520373407323566E-02   7.118685953376001E-02
   6.718022407091828E-02   6.320195569450257E-02   5.927015077799812E-02
   5.540260509949296E-02   5.161651366187354E-02   4.792813959379649E-02
   4.435245306241967E-02   4.090274185480464E-02   3.759019610945505E-02
   3.442347060295885E-02   3.140822901663946E-02   2.854667571912055E-02
   2.583708179359879E-02   2.327331329998856E-02   2.084761897228976E-02
   1.856146939759995E-02   1.641824618099605E-02   1.442031759698645E-02
   1.256900628488206E-02   1.086456764442129E-02   9.306179921498819E-03
   7.891946875019346E-03   6.618913791069075E-03   5.483097459403979E-03
   4.479530549676786E-03   3.602320621654387E-03   2.844723776201069E-03
   2.199232704031440E-03   1.657678619968128E-03   1.211346284926085E-03
   8.511010202163494E-04   5.675263136240005E-04   3.510703073383026E-04
   1.921981506649018E-04   8.154718621963819E-05   1.008913884315010E-05
  -3.070584368286555E-05  -4.871900962841180E-05  -5.103347713397710E-05
  -4.379794396580650E-05  -3.210450198262715E-05  -1.988497049176807E-05
  -9.829664967458962E-06  -3.332690112586856E-06  -4.679320633610429E-07
   2.775557561562891E-17   0.000000000000000E+00   0.000000000000000E+00
   0.000000000000000E+00   0.000000000000000E+00   0.000000000000000E+00
   0.000000000000000E+00   0.000000000000000E+00   0.000000000000000E+00
   0.000000000000000E+00   0.000000000000000E+00   0.000000000000000E+00
   0.000000000000000E+00   0.000000000000000E+00   0.000000000000000E+00
   0.000000000000000E+00   0.000000000000000E+00   0.000000000000000E+00
   0.000000000000000E+00   0.000000000000000E+00   0.000000000000000E+00
   0.000000000000000E+00   0.000000000000000E+00   0.000000000000000E+00
   0.000000000000000E+00   0.000000000000000E+00   0.000000000000000E+00
   0.000000000000000E+00   0.000000000000000E+00   0.000000000000000E+00
   0.000000000000000E+00   0.000000000000000E+00   0.000000000000000E+00
   0.000000000000000E+00   0.000000000000000E+00   0.000000000000000E+00
   0.000000000000000E+00   0.000000000000000E+00   0.000000000000000E+00
   0.000000000000000E+00   0.000000000000000E+00   0.000000000000000E+00
   0.000000000000000E+00   0.000000000000000E+00   0.000000000000000E+00
   0.000000000000000E+00   0.000000000000000E+00   0.000000000000000E+00
   0.000000000000000E+00   0.000000000000000E+00   0.000000000000000E+00
   0.000000000000000E+00   0.000000000000000E+00   0.000000000000000E+00
   0.000000000000000E+00   0.000000000000000E+00   0.000000000000000E+00
   0.000000000000000E+00   0.000000000000000E+00   0.000000000000000E+00
   0.000000000000000E+00   0.000000000000000E+00   0.000000000000000E+00
   0.000000000000000E+00   0.000000000000000E+00   0.000000000000000E+00
   0.000000000000000E+00   0.000000000000000E+00   0.000000000000000E+00
   0.000000000000000E+00   0.000000000000000E+00   0.000000000000000E+00
   0.000000000000000E+00   0.000000000000000E+00   0.000000000000000E+00
   0.000000000000000E+00   0.000000000000000E+00   0.000000000000000E+00
   0.000000000000000E+00   0.000000000000000E+00   0.000000000000000E+00
   0.000000000000000E+00   0.000000000000000E+00   0.000000000000000E+00
   0.000000000000000E+00   0.000000000000000E+00   0.000000000000000E+00
   0.000000000000000E+00   0.000000000000000E+00   0.000000000000000E+00
   0.000000000000000E+00   0.000000000000000E+00   0.000000000000000E+00
   0.000000000000000E+00   0.000000000000000E+00   0.000000000000000E+00
   0.000000000000000E+00   0.000000000000000E+00   0.000000000000000E+00
   0.000000000000000E+00   0.000000000000000E+00   0.000000000000000E+00
   0.000000000000000E+00   0.000000000000000E+00   0.000000000000000E+00
   0.000000000000000E+00   0.000000000000000E+00   0.000000000000000E+00
   0.000000000000000E+00   0.000000000000000E+00   0.000000000000000E+00
   0.000000000000000E+00   0.000000000000000E+00   0.000000000000000E+00
   0.000000000000000E+00   0.000000000000000E+00   0.000000000000000E+00
   0.000000000000000E+00   0.000000000000000E+00   0.000000000000000E+00
   0.000000000000000E+00   0.000000000000000E+00   0.000000000000000E+00
   0.000000000000000E+00   0.000000000000000E+00   0.000000000000000E+00
   0.000000000000000E+00   0.000000000000000E+00   0.000000000000000E+00
   0.000000000000000E+00   0.000000000000000E+00   0.000000000000000E+00
   0.000000000000000E+00   0.000000000000000E+00   0.000000000000000E+00
   0.000000000000000E+00   0.000000000000000E+00   0.000000000000000E+00
   0.000000000000000E+00   0.000000000000000E+00   0.000000000000000E+00
   0.000000000000000E+00   0.000000000000000E+00   0.000000000000000E+00
   0.000000000000000E+00   0.000000000000000E+00   0.000000000000000E+00
   0.000000000000000E+00   0.000000000000000E+00   0.000000000000000E+00
   0.000000000000000E+00   0.000000000000000E+00   0.000000000000000E+00
   0.000000000000000E+00   0.000000000000000E+00   0.000000000000000E+00
   0.000000000000000E+00   0.000000000000000E+00   0.000000000000000E+00
   0.000000000000000E+00   0.000000000000000E+00   0.000000000000000E+00
   0.000000000000000E+00   0.000000000000000E+00   0.000000000000000E+00
   0.000000000000000E+00   0.000000000000000E+00   0.000000000000000E+00
   0.000000000000000E+00   0.000000000000000E+00   0.000000000000000E+00
   0.000000000000000E+00   0.000000000000000E+00   0.000000000000000E+00
   0.000000000000000E+00   0.000000000000000E+00   0.000000000000000E+00
   0.000000000000000E+00   0.000000000000000E+00   0.000000000000000E+00
   0.000000000000000E+00   0.000000000000000E+00   0.000000000000000E+00
   0.000000000000000E+00   0.000000000000000E+00   0.000000000000000E+00
   0.000000000000000E+00   0.000000000000000E+00   0.000000000000000E+00
   0.000000000000000E+00   0.000000000000000E+00   0.000000000000000E+00
   0.000000000000000E+00   0.000000000000000E+00   0.000000000000000E+00
   0.000000000000000E+00   0.000000000000000E+00   0.000000000000000E+00
   0.000000000000000E+00   0.000000000000000E+00   0.000000000000000E+00
   0.000000000000000E+00   0.000000000000000E+00   0.000000000000000E+00
   0.000000000000000E+00   0.000000000000000E+00   0.000000000000000E+00
   0.000000000000000E+00   0.000000000000000E+00   0.000000000000000E+00
   0.000000000000000E+00   0.000000000000000E+00   0.000000000000000E+00
   0.000000000000000E+00   0.000000000000000E+00   0.000000000000000E+00
   0.000000000000000E+00   0.000000000000000E+00   0.000000000000000E+00
   0.000000000000000E+00   0.000000000000000E+00   0.000000000000000E+00
   0.000000000000000E+00   0.000000000000000E+00   0.000000000000000E+00
   0.000000000000000E+00   0.000000000000000E+00   0.000000000000000E+00
   0.000000000000000E+00   0.000000000000000E+00   0.000000000000000E+00
   0.000000000000000E+00   0.000000000000000E+00   0.000000000000000E+00
   0.000000000000000E+00   0.000000000000000E+00   0.000000000000000E+00
   0.000000000000000E+00   0.000000000000000E+00   0.000000000000000E+00
   0.000000000000000E+00   0.000000000000000E+00   0.000000000000000E+00
   0.000000000000000E+00   0.000000000000000E+00   0.000000000000000E+00
   0.000000000000000E+00   0.000000000000000E+00   0.000000000000000E+00
   0.000000000000000E+00   0.000000000000000E+00   0.000000000000000E+00
   0.000000000000000E+00   0.000000000000000E+00   0.000000000000000E+00
   0.000000000000000E+00   0.000000000000000E+00   0.000000000000000E+00
   0.000000000000000E+00   0.000000000000000E+00   0.000000000000000E+00
   0.000000000000000E+00   0.000000000000000E+00   0.000000000000000E+00
   0.000000000000000E+00   0.000000000000000E+00   0.000000000000000E+00
   0.000000000000000E+00   0.000000000000000E+00   0.000000000000000E+00
   0.000000000000000E+00   0.000000000000000E+00   0.000000000000000E+00
   0.000000000000000E+00   0.000000000000000E+00   0.000000000000000E+00
   0.000000000000000E+00   0.000000000000000E+00   0.000000000000000E+00
   0.000000000000000E+00   0.000000000000000E+00   0.000000000000000E+00
   0.000000000000000E+00   0.000000000000000E+00   0.000000000000000E+00
   0.000000000000000E+00   0.000000000000000E+00   0.000000000000000E+00
   0.000000000000000E+00   0.000000000000000E+00   0.000000000000000E+00
   0.000000000000000E+00   0.000000000000000E+00   0.000000000000000E+00
   0.000000000000000E+00   0.000000000000000E+00   0.000000000000000E+00
   0.000000000000000E+00   0.000000000000000E+00   0.000000000000000E+00
   0.000000000000000E+00   0.000000000000000E+00   0.000000000000000E+00
   0.000000000000000E+00   0.000000000000000E+00   0.000000000000000E+00
   0.000000000000000E+00   0.000000000000000E+00   0.000000000000000E+00
   0.000000000000000E+00   0.000000000000000E+00   0.000000000000000E+00
   0.000000000000000E+00   0.000000000000000E+00   0.000000000000000E+00
   0.000000000000000E+00   0.000000000000000E+00   0.000000000000000E+00
   0.000000000000000E+00   0.000000000000000E+00   0.000000000000000E+00
   0.000000000000000E+00   0.000000000000000E+00   0.000000000000000E+00
   0.000000000000000E+00   0.000000000000000E+00   0.000000000000000E+00
   0.000000000000000E+00   0.000000000000000E+00   0.000000000000000E+00
   0.000000000000000E+00   0.000000000000000E+00   0.000000000000000E+00
   0.000000000000000E+00   0.000000000000000E+00   0.000000000000000E+00
   0.000000000000000E+00   0.000000000000000E+00   0.000000000000000E+00
   0.000000000000000E+00   0.000000000000000E+00   0.000000000000000E+00
   0.000000000000000E+00   0.000000000000000E+00   0.000000000000000E+00
      </PP_QIJL.4.4.0>
      <PP_QIJL.4.4.2 first_index="4" second_index="4" composite_index="10" angular_momentum="2" size="1095">
   2.034424151815600E-15   2.138731304093637E-15   2.248386398079956E-15
   2.363663628582114E-15   2.484851248673983E-15   2.612252290478260E-15
   2.746185322904355E-15   2.886985248236295E-15   3.035004139562507E-15
   3.190612121141627E-15   3.354198293905482E-15   3.526171708413695E-15
   3.706962387692700E-15   3.897022402516801E-15   4.096827001820099E-15
   4.306875801065723E-15   4.527694031544172E-15   4.759833853724456E-15
   5.003875737942134E-15   5.260429915876819E-15   5.530137906448307E-15
   5.813674119947197E-15   6.111747544410926E-15   6.425103518462124E-15
   6.754525595042341E-15   7.100837500701219E-15   7.464905195340730E-15
   7.847639037564550E-15   8.249996061047230E-15   8.672982367615372E-15
   9.117655643024331E-15   9.585127801721768E-15   1.007656776721085E-14
   1.059320439496568E-14   1.113632954520784E-14   1.170730131322708E-14
   1.230754742532434E-14   1.293856880886819E-14   1.360194334539185E-14
   1.429932981611557E-14   1.503247204975984E-14   1.580320328302160E-14
   1.661345074461658E-14   1.746524047435027E-14   1.836070238926792E-14
   1.930207560955094E-14   2.029171405747795E-14   2.133209234345043E-14
   2.242581195380075E-14   2.357560775585615E-14   2.478435483652325E-14
   2.605507569149482E-14   2.739094778305414E-14   2.879531148537579E-14
   3.027167843719099E-14   3.182374032270145E-14   3.345537810270092E-14
   3.517067171898538E-14   3.697391029631821E-14   3.886960286746138E-14
   4.086248964808864E-14   4.295755388977640E-14   4.516003434070900E-14
   4.747543834525682E-14   4.990955561518430E-14   5.246847270691993E-14
   5.515858824109225E-14   5.798662890238618E-14   6.095966625972797E-14
   6.408513444885936E-14   6.737084876151277E-14   7.082502518767437E-14
   7.445630095979774E-14   7.827375615033939E-14   8.228693637662361E-14
   8.650587666980484E-14   9.094112656761871E-14   9.560377649366171E-14
   1.005054854891629E-13   1.056585103665919E-13   1.110757363579982E-13
   1.167707093347241E-13   1.227576696790525E-13   1.290515878924859E-13
   1.356682020296997E-13   1.426240570517660E-13   1.499365461970588E-13
   1.576239544732840E-13   1.657055043793869E-13   1.742014039716681E-13
   1.831328973942901E-13   1.925223180005349E-13   2.023931441976380E-13
   2.127700581548371E-13   2.236790075214424E-13   2.351472703092425E-13
   2.472035231014982E-13   2.598779127590707E-13   2.732021318029891E-13
   2.872094976619562E-13   3.019350359829348E-13   3.174155682131551E-13
   3.336898036725224E-13   3.507984363466637E-13   3.687842466426421E-13
   3.876922083617659E-13   4.075696011570010E-13   4.284661287561645E-13
   4.504340432465273E-13   4.735282757315992E-13   4.978065736867872E-13
   5.233296453574085E-13   5.501613115601045E-13   5.783686652672418E-13
   6.080222393733432E-13   6.391961830630290E-13   6.719684472215000E-13
   7.064209793511614E-13   7.426399284817752E-13   7.807158605865321E-13
   8.207439850426525E-13   8.628243927028217E-13   9.070623061727182E-13
   9.535683429204663E-13   1.002458791875922E-12   1.053855904211374E-12
   1.107888199030833E-12   1.164690784732197E-12   1.224405696845906E-12
   1.287182253194831E-12   1.353177427263425E-12   1.422556240709804E-12
   1.495492176002178E-12   1.572167610211416E-12   1.652774271044485E-12
   1.737513716258940E-12   1.826597837657381E-12   1.920249390921975E-12
   2.018702552613932E-12   2.122203505730698E-12   2.231011055284952E-12
   2.345397275444762E-12   2.465648189852941E-12   2.592064486826751E-12
   2.724962271226317E-12   2.864673854871653E-12   3.011548587484839E-12
   3.165953730234986E-12   3.328275374070244E-12   3.498919405133194E-12
   3.678312519673386E-12   3.866903290995007E-12   4.065163291107308E-12
   4.273588269882530E-12   4.492699394669737E-12   4.723044553463960E-12
   4.965199724889415E-12   5.219770418422129E-12   5.487393188453191E-12
   5.768737225978559E-12   6.064506031895025E-12   6.375439176086647E-12
   6.702314146699838E-12   7.045948294231127E-12   7.407200875288800E-12
   7.786975201138081E-12   8.186220896403161E-12   8.605936273572406E-12
   9.047170829245054E-12   9.511027868360621E-12   9.998667262972118E-12
   1.051130835246236E-11   1.105023299245344E-11   1.161678876003416E-11
   1.221239232331908E-11   1.283853298376398E-11   1.349677640009629E-11
   1.418876850316959E-11   1.491623961153267E-11   1.568100875800268E-11
   1.648498823805974E-11   1.733018839143764E-11   1.821872262886354E-11
   1.915281271651768E-11   2.013479433142485E-11   2.116712290166738E-11
   2.225237974602453E-11   2.339327852838614E-11   2.459267204308118E-11
   2.585355934808602E-11   2.717909326394612E-11   2.857258825716424E-11
   3.003752872776162E-11   3.157757772173709E-11   3.319658609020661E-11
   3.489860211812174E-11   3.668788164664609E-11   3.856889871449300E-11
   4.054635674483464E-11   4.262520030575213E-11   4.481062747362710E-11
   4.710810283039345E-11   4.952337112713705E-11   5.206247164821239E-11
   5.473175331178698E-11   5.753789054456562E-11   6.048789997039175E-11
   6.358915795444213E-11   6.684941904688508E-11   7.027683537211361E-11
   7.387997701202500E-11   7.766785343431892E-11   8.164993601937565E-11
   8.583618174204478E-11   9.023705806754934E-11   9.486356912374271E-11
   9.972728321516523E-11   1.048403617476726E-10   1.102155896359636E-10
   1.158664072700239E-10   1.218069441203989E-10   1.280520540663261E-10
   1.346173525350309E-10   1.415192555450493E-10   1.487750207511850E-10
   1.564027905937028E-10   1.644216376596539E-10   1.728516123697106E-10
   1.817137931097457E-10   1.910303389324793E-10   2.008245449609320E-10
   2.111209006322177E-10   2.219451509272469E-10   2.333243607394366E-10
   2.452869825433335E-10   2.578629275322984E-10   2.710836404031211E-10
   2.849821779744746E-10   2.995932918357732E-10   3.149535152330311E-10
   3.311012544089000E-10   3.480768846252601E-10   3.659228511083405E-10
   3.846837751687520E-10   4.044065657616821E-10   4.251405367661144E-10
   4.469375302762503E-10   4.698520462132971E-10   4.939413785816235E-10
   5.192657587098631E-10   5.458885058349984E-10   5.738761854058452E-10
   6.032987755015922E-10   6.342298417813892E-10   6.667467214022538E-10
   7.009307163649886E-10   7.368672967713866E-10   7.746463145007135E-10
   8.143622278395612E-10   8.561143376264847E-10   9.000070355016089E-10
   9.461500648816948E-10   9.946587953128580E-10   1.045654510886659E-09
   1.099264713440345E-09   1.155623441298984E-09   1.214871604356105E-09
   1.277157336330194E-09   1.342636365077394E-09   1.411472401885822E-09
   1.483837550724302E-09   1.559912738468279E-09   1.639888167177920E-09
   1.723963789558657E-09   1.812349808792227E-09   1.905267203987156E-09
   2.002948282561718E-09   2.105637260939499E-09   2.213590875008612E-09
   2.327079021869818E-09   2.446385434476938E-09   2.571808390855251E-09
   2.703661459669699E-09   2.842274284005717E-09   2.987993405546565E-09
   3.141183129502677E-09   3.302226437904052E-09   3.471525943830375E-09
   3.649504899848607E-09   3.836608254330582E-09   4.033303764693819E-09
   4.240083165537415E-09   4.457463398885948E-09   4.685987907181636E-09
   4.926227984923257E-09   5.178784214798315E-09   5.444287965008428E-09
   5.723402967227327E-09   6.016826974097455E-09   6.325293505068524E-09
   6.649573679207841E-09   6.990478138659360E-09   7.348859084870570E-09
   7.725612390274263E-09   8.121679857845374E-09   8.538051555138048E-09
   8.975768303582322E-09   9.435924270196654E-09   9.919669705874643E-09
   1.042821381119415E-08   1.096282778025966E-08   1.152484793943985E-08
   1.211567912307829E-08   1.273679817025623E-08   1.338975760060312E-08
   1.407618950787681E-08   1.479780964785462E-08   1.555642168885242E-08
   1.635392175226418E-08   1.719230314980139E-08   1.807366132751653E-08
   1.900019912331698E-08   1.997423230771804E-08   2.099819525772376E-08
   2.207464720073618E-08   2.320627843788905E-08   2.439591718986085E-08
   2.564653656807210E-08   2.696126208166431E-08   2.834337940695429E-08
   2.979634256864633E-08   3.132378262131677E-08   3.292951661719278E-08
   3.461755727176557E-08   3.639212291451359E-08   3.825764799509776E-08
   4.021879419941570E-08   4.228046206817997E-08   4.444780322130404E-08
   4.672623329343127E-08   4.912144533386826E-08   5.163942411846818E-08
   5.428646105347842E-08   5.706916983243156E-08   5.999450307362279E-08
   6.306976949721278E-08   6.630265233423910E-08   6.970122840737362E-08
   7.327398827140596E-08   7.702985748394693E-08   8.097821878798429E-08
   8.512893564738826E-08   8.949237670277464E-08   9.407944168204541E-08
   9.890158872706184E-08   1.039708628311159E-07   1.092999258906146E-07
   1.149020883958712E-07   1.207913424885004E-07   1.269823970088749E-07
   1.334907140444780E-07   1.403325475879359E-07   1.475249839678152E-07
   1.550859845624573E-07   1.630344304799284E-07   1.713901696843135E-07
   1.801740664810731E-07   1.894080535042689E-07   1.991151863709907E-07
   2.093197010546116E-07   2.200470745882353E-07   2.313240881602388E-07
   2.431788940201524E-07   2.556410857537297E-07   2.687417716933194E-07
   2.825136526551655E-07   2.969911032209485E-07   3.122102575940599E-07
   3.282090991917302E-07   3.450275555351013E-07   3.627075975675358E-07
   3.812933440302604E-07   4.008311713767928E-07   4.213698292130941E-07
   4.429605614666231E-07   4.656572340815619E-07   4.895164688470265E-07
   5.145977842715226E-07   5.409637437628117E-07   5.686801110609397E-07
   5.978160136966200E-07   6.284441151309005E-07   6.606407950093572E-07
   6.944863393242870E-07   7.300651396163675E-07   7.674659028817369E-07
   8.067818718677381E-07   8.481110566928182E-07   8.915564780402095E-07
   9.372264232245263E-07   9.852347148187770E-07   1.035700993235279E-06
   1.088751013634372E-06   1.144516957849762E-06   1.203137762247159E-06
   1.264759462473981E-06   1.329535555328920E-06   1.397627379408555E-06
   1.469204514882427E-06   1.544445203814339E-06   1.623536791610205E-06
   1.706676191040362E-06   1.794070369788222E-06   1.885936862863590E-06
   1.982504310930210E-06   2.084013025917144E-06   2.190715585607190E-06
   2.302877458073573E-06   2.420777657946290E-06   2.544709436128133E-06
   2.674981004123496E-06   2.811916295469241E-06   2.955855765307806E-06
   3.107157231097095E-06   3.266196755186153E-06   3.433369572760553E-06
   3.609091066161093E-06   3.793797788864566E-06   3.987948541261562E-06
   4.192025500547428E-06   4.406535408100656E-06   4.632010816538895E-06
   4.869011400010480E-06   5.118125330389735E-06   5.379970723266455E-06
   5.655197156368746E-06   5.944487265319193E-06   6.248558418920440E-06
   6.568164479679478E-06   6.904097652342388E-06   7.257190426027501E-06
   7.628317613545044E-06   8.018398493829513E-06   8.428399061483541E-06
   8.859334389840009E-06   9.312271112338058E-06   9.788330028589279E-06
   1.028868884112950E-05   1.081458502931848E-05   1.136731886719964E-05
   1.194825659255520E-05   1.255883373442279E-05   1.320055860706537E-05
   1.387501597850921E-05   1.458387092231863E-05   1.532887286150686E-05
   1.611185981423598E-05   1.693476285092892E-05   1.779961077343666E-05
   1.870853502709720E-05   1.966377485660749E-05   2.066768271862527E-05
   2.172272996240063E-05   2.283151279271654E-05   2.399675852761012E-05
   2.522133216660742E-05   2.650824328307498E-05   2.786065325769840E-05
   2.928188286862485E-05   3.077542025617300E-05   3.234492927944937E-05
   3.399425828470838E-05   3.572744930419220E-05   3.754874770684240E-05
   3.946261232235146E-05   4.147372606078740E-05   4.358700705189591E-05
   4.580762032883611E-05   4.814099008139223E-05   5.059281250707803E-05
   5.316906928674455E-05   5.587604171568804E-05   5.872032551975725E-05
   6.170884638982284E-05   6.484887626715923E-05   6.814805041561923E-05
   7.161438531682505E-05   7.525629742656836E-05   7.908262283273307E-05
   8.310263785548095E-05   8.732608063428270E-05   9.176317374582035E-05
   9.642464790067117E-05   1.013217667678963E-04   1.064663529780755E-04
   1.118708153589622E-04   1.175481774587470E-04   1.235121074146782E-04
   1.297769492276155E-04   1.363577555045281E-04   1.432703217343538E-04
   1.505312221647447E-04   1.581578473498751E-04   1.661684434422867E-04
   1.745821533047468E-04   1.834190595204469E-04   1.927002293834813E-04
   2.024477619537384E-04   2.126848372644383E-04   2.234357677727337E-04
   2.347260521475288E-04   2.465824314917403E-04   2.590329480999667E-04
   2.721070068550383E-04   2.858354393715026E-04   3.002505709962822E-04
   3.153862907815759E-04   3.312781245471976E-04   3.479633111545474E-04
   3.654808821163702E-04   3.838717446715022E-04   4.031787684560419E-04
   4.234468759066913E-04   4.447231365347962E-04   4.670568652135538E-04
   4.904997246235095E-04   5.151058320049495E-04   5.409318703685064E-04
   5.680372043182742E-04   5.964840006444899E-04   6.263373538446363E-04
   6.576654167344759E-04   6.905395363120257E-04   7.250343950394266E-04
   7.612281577074711E-04   7.992026240499711E-04   8.390433872736275E-04
   8.808399986696690E-04   9.246861384718354E-04   9.706797931239616E-04
   1.018923439117908E-03   1.069524233558663E-03   1.122594211610086E-03
   1.178250490968783E-03   1.236615483507626E-03   1.297817114222291E-03
   1.361989047606291E-03   1.429270921568585E-03   1.499808588996234E-03
   1.573754367051263E-03   1.651267294275082E-03   1.732513395556092E-03
   1.817665954996973E-03   1.906905796695733E-03   2.000421573430063E-03
   2.098410063207122E-03   2.201076473611238E-03   2.308634753847879E-03
   2.421307914345568E-03   2.539328353737978E-03   2.662938193002518E-03
   2.792389616484960E-03   2.927945219485328E-03   3.069878362023842E-03
   3.218473528342709E-03   3.374026691630999E-03   3.536845683387243E-03
   3.707250566754320E-03   3.885574013074738E-03   4.072161680822518E-03
   4.267372595967928E-03   4.471579532723291E-03   4.685169393504027E-03
   4.908543586815227E-03   5.142118401641934E-03   5.386325376780795E-03
   5.641611663399766E-03   5.908440378952732E-03   6.187290950405633E-03
   6.478659444549008E-03   6.783058882981364E-03   7.101019539143241E-03
   7.433089214568615E-03   7.779833491293468E-03   8.141835957122916E-03
   8.519698400208626E-03   8.914040969124709E-03   9.325502294356146E-03
   9.754739566826268E-03   1.020242856879073E-02   1.066926365211376E-02
   1.115595765862098E-02   1.166324177688756E-02   1.219186532947826E-02
   1.274259548430093E-02   1.331621688337316E-02   1.391353118193228E-02
   1.453535649044245E-02   1.518252671167394E-02   1.585589076464592E-02
   1.655631168684302E-02   1.728466560573526E-02   1.804184057025683E-02
   1.882873523253437E-02   1.964625736980173E-02   2.049532223610272E-02
   2.137685073306924E-02   2.229176738877346E-02   2.324099813340003E-02
   2.422546786026581E-02   2.524609776054678E-02   2.630380241995472E-02
   2.739948666555154E-02   2.853404215090786E-02   2.970834366790835E-02
   3.092324517369661E-02   3.217957552154460E-02   3.347813388483700E-02
   3.481968486389792E-02   3.620495326606107E-02   3.763461855021705E-02
   3.910930892807452E-02   4.062959511555949E-02   4.219598372917140E-02
   4.380891032372452E-02   4.546873206975384E-02   4.717572007096823E-02
   4.893005132450864E-02   5.073180032943974E-02   5.258093035187293E-02
   5.447728435842075E-02   5.642057563332148E-02   5.841037809856469E-02
   6.044611636071721E-02   6.252705551288719E-02   6.465229072540014E-02
   6.682073666428792E-02   6.903111678261480E-02   7.128195253599047E-02
   7.357155258032463E-02   7.589800201696807E-02   7.825915175782912E-02
   8.065260809082682E-02   8.307572253412525E-02   8.552558207590763E-02
   8.799899990498662E-02   9.049250674620950E-02   9.300234292332847E-02
   9.552445128071199E-02   9.805447110381058E-02   1.005877331866011E-01
   1.031192562021435E-01   1.056437445397409E-01   1.081555877788753E-01
   1.106488619758377E-01   1.131173329436535E-01   1.155544617092621E-01
   1.179534123336946E-01   1.203070622810180E-01   1.226080155197216E-01
   1.248486185358214E-01   1.270209794299133E-01   1.291169902604264E-01
   1.311283527821615E-01   1.330466077125008E-01   1.348631676372082E-01
   1.365693536432319E-01   1.381564357371037E-01   1.396156770742564E-01
   1.409383819866244E-01   1.421159477531924E-01   1.431399200106525E-01
   1.440020516490379E-01   1.446943649802830E-01   1.452092169063055E-01
   1.455393667477767E-01   1.456780463257171E-01   1.456190318160195E-01
   1.453567168227418E-01   1.448861860404357E-01   1.442032887999736E-01
   1.433047117175500E-01   1.421880495941881E-01   1.408518736447225E-01
   1.392957960725859E-01   1.375205299516003E-01   1.355279433302731E-01
   1.333211064398002E-01   1.309043308659819E-01   1.282831995394962E-01
   1.254645864101548E-01   1.224566647004084E-01   1.192689026827249E-01
   1.159120459952470E-01   1.123980856007088E-01   1.087402106045195E-01
   1.049527452781429E-01   1.010510697814851E-01   9.705152424001814E-02
   9.297129600505627E-02   8.882829010395651E-02   8.464098306523452E-02
   8.042826047480243E-02   7.620923877605576E-02   7.200307196025504E-02
   6.782874389598634E-02   6.370484710925763E-02   5.964934884148335E-02
   5.567934517512748E-02   5.181080392249949E-02   4.805829682158215E-02
   4.443472137784261E-02   4.095101244230161E-02   3.761584334006765E-02
   3.443531608478295E-02   3.141263996678784E-02   2.854779763071811E-02
   2.583719771717564E-02   2.327331329998855E-02   2.084761897228976E-02
   1.856146939759995E-02   1.641824618099605E-02   1.442031759698645E-02
   1.256900628488206E-02   1.086456764442129E-02   9.306179921498819E-03
   7.891946875019346E-03   6.618913791069075E-03   5.483097459403979E-03
   4.479530549676786E-03   3.602320621654387E-03   2.844723776201069E-03
   2.199232704031440E-03   1.657678619968128E-03   1.211346284926085E-03
   8.511010202163494E-04   5.675263136240005E-04   3.510703073383026E-04
   1.921981506649018E-04   8.154718621963819E-05   1.008913884315010E-05
  -3.070584368286555E-05  -4.871900962841180E-05  -5.103347713397710E-05
  -4.379794396580650E-05  -3.210450198262715E-05  -1.988497049176807E-05
  -9.829664967458962E-06  -3.332690112586856E-06  -4.679320633610429E-07
   2.775557561562891E-17   0.000000000000000E+00   0.000000000000000E+00
   0.000000000000000E+00   0.000000000000000E+00   0.000000000000000E+00
   0.000000000000000E+00   0.000000000000000E+00   0.000000000000000E+00
   0.000000000000000E+00   0.000000000000000E+00   0.000000000000000E+00
   0.000000000000000E+00   0.000000000000000E+00   0.000000000000000E+00
   0.000000000000000E+00   0.000000000000000E+00   0.000000000000000E+00
   0.000000000000000E+00   0.000000000000000E+00   0.000000000000000E+00
   0.000000000000000E+00   0.000000000000000E+00   0.000000000000000E+00
   0.000000000000000E+00   0.000000000000000E+00   0.000000000000000E+00
   0.000000000000000E+00   0.000000000000000E+00   0.000000000000000E+00
   0.000000000000000E+00   0.000000000000000E+00   0.000000000000000E+00
   0.000000000000000E+00   0.000000000000000E+00   0.000000000000000E+00
   0.000000000000000E+00   0.000000000000000E+00   0.000000000000000E+00
   0.000000000000000E+00   0.000000000000000E+00   0.000000000000000E+00
   0.000000000000000E+00   0.000000000000000E+00   0.000000000000000E+00
   0.000000000000000E+00   0.000000000000000E+00   0.000000000000000E+00
   0.000000000000000E+00   0.000000000000000E+00   0.000000000000000E+00
   0.000000000000000E+00   0.000000000000000E+00   0.000000000000000E+00
   0.000000000000000E+00   0.000000000000000E+00   0.000000000000000E+00
   0.000000000000000E+00   0.000000000000000E+00   0.000000000000000E+00
   0.000000000000000E+00   0.000000000000000E+00   0.000000000000000E+00
   0.000000000000000E+00   0.000000000000000E+00   0.000000000000000E+00
   0.000000000000000E+00   0.000000000000000E+00   0.000000000000000E+00
   0.000000000000000E+00   0.000000000000000E+00   0.000000000000000E+00
   0.000000000000000E+00   0.000000000000000E+00   0.000000000000000E+00
   0.000000000000000E+00   0.000000000000000E+00   0.000000000000000E+00
   0.000000000000000E+00   0.000000000000000E+00   0.000000000000000E+00
   0.000000000000000E+00   0.000000000000000E+00   0.000000000000000E+00
   0.000000000000000E+00   0.000000000000000E+00   0.000000000000000E+00
   0.000000000000000E+00   0.000000000000000E+00   0.000000000000000E+00
   0.000000000000000E+00   0.000000000000000E+00   0.000000000000000E+00
   0.000000000000000E+00   0.000000000000000E+00   0.000000000000000E+00
   0.000000000000000E+00   0.000000000000000E+00   0.000000000000000E+00
   0.000000000000000E+00   0.000000000000000E+00   0.000000000000000E+00
   0.000000000000000E+00   0.000000000000000E+00   0.000000000000000E+00
   0.000000000000000E+00   0.000000000000000E+00   0.000000000000000E+00
   0.000000000000000E+00   0.000000000000000E+00   0.000000000000000E+00
   0.000000000000000E+00   0.000000000000000E+00   0.000000000000000E+00
   0.000000000000000E+00   0.000000000000000E+00   0.000000000000000E+00
   0.000000000000000E+00   0.000000000000000E+00   0.000000000000000E+00
   0.000000000000000E+00   0.000000000000000E+00   0.000000000000000E+00
   0.000000000000000E+00   0.000000000000000E+00   0.000000000000000E+00
   0.000000000000000E+00   0.000000000000000E+00   0.000000000000000E+00
   0.000000000000000E+00   0.000000000000000E+00   0.000000000000000E+00
   0.000000000000000E+00   0.000000000000000E+00   0.000000000000000E+00
   0.000000000000000E+00   0.000000000000000E+00   0.000000000000000E+00
   0.000000000000000E+00   0.000000000000000E+00   0.000000000000000E+00
   0.000000000000000E+00   0.000000000000000E+00   0.000000000000000E+00
   0.000000000000000E+00   0.000000000000000E+00   0.000000000000000E+00
   0.000000000000000E+00   0.000000000000000E+00   0.000000000000000E+00
   0.000000000000000E+00   0.000000000000000E+00   0.000000000000000E+00
   0.000000000000000E+00   0.000000000000000E+00   0.000000000000000E+00
   0.000000000000000E+00   0.000000000000000E+00   0.000000000000000E+00
   0.000000000000000E+00   0.000000000000000E+00   0.000000000000000E+00
   0.000000000000000E+00   0.000000000000000E+00   0.000000000000000E+00
   0.000000000000000E+00   0.000000000000000E+00   0.000000000000000E+00
   0.000000000000000E+00   0.000000000000000E+00   0.000000000000000E+00
   0.000000000000000E+00   0.000000000000000E+00   0.000000000000000E+00
   0.000000000000000E+00   0.000000000000000E+00   0.000000000000000E+00
   0.000000000000000E+00   0.000000000000000E+00   0.000000000000000E+00
   0.000000000000000E+00   0.000000000000000E+00   0.000000000000000E+00
   0.000000000000000E+00   0.000000000000000E+00   0.000000000000000E+00
   0.000000000000000E+00   0.000000000000000E+00   0.000000000000000E+00
   0.000000000000000E+00   0.000000000000000E+00   0.000000000000000E+00
   0.000000000000000E+00   0.000000000000000E+00   0.000000000000000E+00
   0.000000000000000E+00   0.000000000000000E+00   0.000000000000000E+00
   0.000000000000000E+00   0.000000000000000E+00   0.000000000000000E+00
   0.000000000000000E+00   0.000000000000000E+00   0.000000000000000E+00
   0.000000000000000E+00   0.000000000000000E+00   0.000000000000000E+00
   0.000000000000000E+00   0.000000000000000E+00   0.000000000000000E+00
   0.000000000000000E+00   0.000000000000000E+00   0.000000000000000E+00
   0.000000000000000E+00   0.000000000000000E+00   0.000000000000000E+00
   0.000000000000000E+00   0.000000000000000E+00   0.000000000000000E+00
   0.000000000000000E+00   0.000000000000000E+00   0.000000000000000E+00
   0.000000000000000E+00   0.000000000000000E+00   0.000000000000000E+00
   0.000000000000000E+00   0.000000000000000E+00   0.000000000000000E+00
   0.000000000000000E+00   0.000000000000000E+00   0.000000000000000E+00
   0.000000000000000E+00   0.000000000000000E+00   0.000000000000000E+00
   0.000000000000000E+00   0.000000000000000E+00   0.000000000000000E+00
   0.000000000000000E+00   0.000000000000000E+00   0.000000000000000E+00
   0.000000000000000E+00   0.000000000000000E+00   0.000000000000000E+00
   0.000000000000000E+00   0.000000000000000E+00   0.000000000000000E+00
   0.000000000000000E+00   0.000000000000000E+00   0.000000000000000E+00
   0.000000000000000E+00   0.000000000000000E+00   0.000000000000000E+00
   0.000000000000000E+00   0.000000000000000E+00   0.000000000000000E+00
   0.000000000000000E+00   0.000000000000000E+00   0.000000000000000E+00
   0.000000000000000E+00   0.000000000000000E+00   0.000000000000000E+00
   0.000000000000000E+00   0.000000000000000E+00   0.000000000000000E+00
   0.000000000000000E+00   0.000000000000000E+00   0.000000000000000E+00
   0.000000000000000E+00   0.000000000000000E+00   0.000000000000000E+00
   0.000000000000000E+00   0.000000000000000E+00   0.000000000000000E+00
   0.000000000000000E+00   0.000000000000000E+00   0.000000000000000E+00
   0.000000000000000E+00   0.000000000000000E+00   0.000000000000000E+00
   0.000000000000000E+00   0.000000000000000E+00   0.000000000000000E+00
   0.000000000000000E+00   0.000000000000000E+00   0.000000000000000E+00
   0.000000000000000E+00   0.000000000000000E+00   0.000000000000000E+00
   0.000000000000000E+00   0.000000000000000E+00   0.000000000000000E+00
   0.000000000000000E+00   0.000000000000000E+00   0.000000000000000E+00
   0.000000000000000E+00   0.000000000000000E+00   0.000000000000000E+00
   0.000000000000000E+00   0.000000000000000E+00   0.000000000000000E+00
   0.000000000000000E+00   0.000000000000000E+00   0.000000000000000E+00
   0.000000000000000E+00   0.000000000000000E+00   0.000000000000000E+00
   0.000000000000000E+00   0.000000000000000E+00   0.000000000000000E+00
   0.000000000000000E+00   0.000000000000000E+00   0.000000000000000E+00
   0.000000000000000E+00   0.000000000000000E+00   0.000000000000000E+00
   0.000000000000000E+00   0.000000000000000E+00   0.000000000000000E+00
   0.000000000000000E+00   0.000000000000000E+00   0.000000000000000E+00
   0.000000000000000E+00   0.000000000000000E+00   0.000000000000000E+00
   0.000000000000000E+00   0.000000000000000E+00   0.000000000000000E+00
   0.000000000000000E+00   0.000000000000000E+00   0.000000000000000E+00
   0.000000000000000E+00   0.000000000000000E+00   0.000000000000000E+00
   0.000000000000000E+00   0.000000000000000E+00   0.000000000000000E+00
   0.000000000000000E+00   0.000000000000000E+00   0.000000000000000E+00
   0.000000000000000E+00   0.000000000000000E+00   0.000000000000000E+00
   0.000000000000000E+00   0.000000000000000E+00   0.000000000000000E+00
      </PP_QIJL.4.4.2>
    </PP_AUGMENTATION>
  </PP_NONLOCAL>
  <PP_PSWFC>
    <PP_CHI.1 size="1095" index="1" label="2S" l="0" occupation="2.0000000000000000" n="1" cutoff_radius="1.0000000000000000" ultrasoft_cutoff_radius="1.3000000000000000">
  -2.421669980508258E-04  -2.452130838290286E-04  -2.482974846468482E-04
  -2.514206824480491E-04  -2.545831652384983E-04  -2.577854271624170E-04
  -2.610279685795908E-04  -2.643112961435526E-04  -2.676359228807469E-04
  -2.710023682706926E-04  -2.744111583271510E-04  -2.778628256803168E-04
  -2.813579096600422E-04  -2.848969563801086E-04  -2.884805188235576E-04
  -2.921091569290944E-04  -2.957834376785803E-04  -2.995039351856236E-04
  -3.032712307852865E-04  -3.070859131249191E-04  -3.109485782561360E-04
  -3.148598297279511E-04  -3.188202786810820E-04  -3.228305439434421E-04
  -3.268912521268339E-04  -3.310030377248566E-04  -3.351665432120475E-04
  -3.393824191442695E-04  -3.436513242603606E-04  -3.479739255850638E-04
  -3.523508985332497E-04  -3.567829270154509E-04  -3.612707035447240E-04
  -3.658149293448559E-04  -3.704163144599307E-04  -3.750755778652752E-04
  -3.797934475797982E-04  -3.845706607797464E-04  -3.894079639138871E-04
  -3.943061128201431E-04  -3.992658728436921E-04  -4.042880189565533E-04
  -4.093733358786766E-04  -4.145226182005569E-04  -4.197366705073904E-04
  -4.250163075047892E-04  -4.303623541460814E-04  -4.357756457612110E-04
  -4.412570281872580E-04  -4.468073579006022E-04  -4.524275021507469E-04
  -4.581183390958282E-04  -4.638807579398279E-04  -4.697156590715112E-04
  -4.756239542051153E-04  -4.816065665228021E-04  -4.876644308189081E-04
  -4.937984936460064E-04  -5.000097134628046E-04  -5.062990607839068E-04
  -5.126675183314532E-04  -5.191160811886753E-04  -5.256457569553742E-04
  -5.322575659053596E-04  -5.389525411458699E-04  -5.457317287789919E-04
  -5.525961880651162E-04  -5.595469915884472E-04  -5.665852254245923E-04
  -5.737119893102645E-04  -5.809283968151128E-04  -5.882355755157200E-04
  -5.956346671717846E-04  -6.031268279045204E-04  -6.107132283773029E-04
  -6.183950539785807E-04  -6.261735050070952E-04  -6.340497968594255E-04
  -6.420251602198931E-04  -6.501008412528582E-04  -6.582781017974276E-04
  -6.665582195646202E-04  -6.749424883370050E-04  -6.834322181708565E-04
  -6.920287356008489E-04  -7.007333838473237E-04  -7.095475230261692E-04
  -7.184725303613350E-04  -7.275098004000224E-04  -7.366607452305817E-04
  -7.459267947031462E-04  -7.553093966530456E-04  -7.648100171270292E-04
  -7.744301406123295E-04  -7.841712702686172E-04  -7.940349281628590E-04
  -8.040226555071434E-04  -8.141360128994894E-04  -8.243765805676867E-04
  -8.347459586162052E-04  -8.452457672762026E-04  -8.558776471586855E-04
  -8.666432595108484E-04  -8.775442864756395E-04  -8.885824313545931E-04
  -8.997594188739598E-04  -9.110769954541958E-04  -9.225369294828303E-04
  -9.341410115907728E-04  -9.458910549320943E-04  -9.577888954673218E-04
  -9.698363922503019E-04  -9.820354277186715E-04  -9.943879079879799E-04
  -1.006895763149513E-03  -1.019560947571860E-03  -1.032385440206272E-03
  -1.045371244895869E-03  -1.058520390688725E-03  -1.071834932154903E-03
  -1.085316949707464E-03  -1.098968549927523E-03  -1.112791865893390E-03
  -1.126789057513853E-03  -1.140962311865648E-03  -1.155313843535177E-03
  -1.169845894964520E-03  -1.184560736801807E-03  -1.199460668255986E-03
  -1.214548017456064E-03  -1.229825141814850E-03  -1.245294428397294E-03
  -1.260958294293440E-03  -1.276819186996076E-03  -1.292879584783143E-03
  -1.309141997104932E-03  -1.325608964976173E-03  -1.342283061373038E-03
  -1.359166891635152E-03  -1.376263093872649E-03  -1.393574339378346E-03
  -1.411103333045107E-03  -1.428852813788455E-03  -1.446825554974497E-03
  -1.465024364853234E-03  -1.483452086997308E-03  -1.502111600746286E-03
  -1.521005821656513E-03  -1.540137701956640E-03  -1.559510231008865E-03
  -1.579126435775979E-03  -1.598989381294290E-03  -1.619102171152489E-03
  -1.639467947976542E-03  -1.660089893920680E-03  -1.680971231164552E-03
  -1.702115222416651E-03  -1.723525171424046E-03  -1.745204423488548E-03
  -1.767156365989350E-03  -1.789384428912242E-03  -1.811892085385487E-03
  -1.834682852222430E-03  -1.857760290470928E-03  -1.881128005969706E-03
  -1.904789649911668E-03  -1.928748919414354E-03  -1.953009558097506E-03
  -1.977575356667934E-03  -2.002450153511738E-03  -2.027637835293942E-03
  -2.053142337565716E-03  -2.078967645379191E-03  -2.105117793910024E-03
  -2.131596869087803E-03  -2.158409008234334E-03  -2.185558400710017E-03
  -2.213049288568286E-03  -2.240885967218323E-03  -2.269072786096081E-03
  -2.297614149343740E-03  -2.326514516497736E-03  -2.355778403185401E-03
  -2.385410381830377E-03  -2.415415082366923E-03  -2.445797192963139E-03
  -2.476561460753372E-03  -2.507712692579741E-03  -2.539255755743037E-03
  -2.571195578763058E-03  -2.603537152148459E-03  -2.636285529176362E-03
  -2.669445826681669E-03  -2.703023225856374E-03  -2.737022973058891E-03
  -2.771450380633526E-03  -2.806310827740340E-03  -2.841609761195327E-03
  -2.877352696321231E-03  -2.913545217809045E-03  -2.950192980590301E-03
  -2.987301710720387E-03  -3.024877206272896E-03  -3.062925338245250E-03
  -3.101452051475736E-03  -3.140463365571982E-03  -3.179965375851214E-03
  -3.219964254292212E-03  -3.260466250499311E-03  -3.301477692678504E-03
  -3.343004988625761E-03  -3.385054626727845E-03  -3.427633176975621E-03
  -3.470747291990159E-03  -3.514403708061711E-03  -3.558609246201709E-03
  -3.603370813208052E-03  -3.648695402743703E-03  -3.694590096428889E-03
  -3.741062064946993E-03  -3.788118569164329E-03  -3.835766961264034E-03
  -3.884014685894143E-03  -3.932869281330117E-03  -3.982338380652003E-03
  -4.032429712936285E-03  -4.083151104462825E-03  -4.134510479936861E-03
  -4.186515863726396E-03  -4.239175381115162E-03  -4.292497259571208E-03
  -4.346489830031579E-03  -4.401161528202967E-03  -4.456520895878781E-03
  -4.512576582272751E-03  -4.569337345369242E-03  -4.626812053290564E-03
  -4.685009685681378E-03  -4.743939335110570E-03  -4.803610208490656E-03
  -4.864031628515010E-03  -4.925213035113182E-03  -4.987163986924399E-03
  -5.049894162789634E-03  -5.113413363262352E-03  -5.177731512138236E-03
  -5.242858658004099E-03  -5.308804975806227E-03  -5.375580768438408E-03
  -5.443196468349893E-03  -5.511662639173484E-03  -5.580989977374098E-03
  -5.651189313917944E-03  -5.722271615962727E-03  -5.794247988568950E-03
  -5.867129676432749E-03  -5.940928065640415E-03  -6.015654685444919E-03
  -6.091321210064718E-03  -6.167939460505133E-03  -6.245521406402481E-03
  -6.324079167891426E-03  -6.403625017495633E-03  -6.484171382042177E-03
  -6.565730844599939E-03  -6.648316146442245E-03  -6.731940189034142E-03
  -6.816616036044516E-03  -6.902356915383456E-03  -6.989176221265109E-03
  -7.077087516296363E-03  -7.166104533591722E-03  -7.256241178914598E-03
  -7.347511532845431E-03  -7.439929852976977E-03  -7.533510576137036E-03
  -7.628268320638984E-03  -7.724217888560488E-03  -7.821374268050725E-03
  -7.919752635666449E-03  -8.019368358737263E-03  -8.120236997760509E-03
  -8.222374308826047E-03  -8.325796246071372E-03  -8.430518964167437E-03
  -8.536558820835453E-03  -8.643932379395277E-03  -8.752656411345502E-03
  -8.862747898975863E-03  -8.974224038012206E-03  -9.087102240294515E-03
  -9.201400136488342E-03  -9.317135578830094E-03  -9.434326643906633E-03
  -9.552991635469434E-03  -9.673149087283953E-03  -9.794817766014456E-03
  -9.918016674144828E-03  -1.004276505293582E-02  -1.016908238541918E-02
  -1.029698839942894E-02  -1.042650307067066E-02  -1.055764662582874E-02
  -1.069043954571249E-02  -1.082490256844133E-02  -1.096105669266962E-02
  -1.109892318085168E-02  -1.123852356254723E-02  -1.137987963776816E-02
  -1.152301348036674E-02  -1.166794744146596E-02  -1.181470415293252E-02
  -1.196330653089287E-02  -1.211377777929297E-02  -1.226614139350217E-02
  -1.242042116396184E-02  -1.257664117987919E-02  -1.273482583296688E-02
  -1.289499982122902E-02  -1.305718815279406E-02  -1.322141614979505E-02
  -1.338770945229799E-02  -1.355609402227879E-02  -1.372659614764930E-02
  -1.389924244633330E-02  -1.407405987039269E-02  -1.425107571020463E-02
  -1.443031759869026E-02  -1.461181351559569E-02  -1.479559179182566E-02
  -1.498168111383065E-02  -1.517011052804805E-02  -1.536090944539794E-02
  -1.555410764583424E-02  -1.574973528295184E-02  -1.594782288865029E-02
  -1.614840137785489E-02  -1.635150205329557E-02  -1.655715661034448E-02
  -1.676539714191297E-02  -1.697625614340844E-02  -1.718976651775191E-02
  -1.740596158045697E-02  -1.762487506477085E-02  -1.784654112687829E-02
  -1.807099435116893E-02  -1.829826975556895E-02  -1.852840279693767E-02
  -1.876142937652988E-02  -1.899738584552473E-02  -1.923630901062163E-02
  -1.947823613970424E-02  -1.972320496757328E-02  -1.997125370174863E-02
  -2.022242102834194E-02  -2.047674611800015E-02  -2.073426863192083E-02
  -2.099502872794021E-02  -2.125906706669475E-02  -2.152642481785667E-02
  -2.179714366644494E-02  -2.207126581921155E-02  -2.234883401110508E-02
  -2.262989151181134E-02  -2.291448213237256E-02  -2.320265023188578E-02
  -2.349444072428089E-02  -2.378989908518005E-02  -2.408907135883841E-02
  -2.439200416516756E-02  -2.469874470684252E-02  -2.500934077649256E-02
  -2.532384076397770E-02  -2.564229366375086E-02  -2.596474908230698E-02
  -2.629125724572004E-02  -2.662186900726835E-02  -2.695663585514984E-02
  -2.729560992028723E-02  -2.763884398422500E-02  -2.798639148711807E-02
  -2.833830653581368E-02  -2.869464391202723E-02  -2.905545908061309E-02
  -2.942080819793071E-02  -2.979074812030769E-02  -3.016533641260023E-02
  -3.054463135685174E-02  -3.092869196105109E-02  -3.131757796799053E-02
  -3.171134986422499E-02  -3.211006888913295E-02  -3.251379704408021E-02
  -3.292259710168728E-02  -3.333653261520105E-02  -3.375566792797209E-02
  -3.418006818303778E-02  -3.460979933281258E-02  -3.504492814888611E-02
  -3.548552223192993E-02  -3.593165002171365E-02  -3.638338080723157E-02
  -3.684078473693978E-02  -3.730393282910581E-02  -3.777289698227020E-02
  -3.824774998582192E-02  -3.872856553068756E-02  -3.921541822013505E-02
  -3.970838358069342E-02  -4.020753807318832E-02  -4.071295910389413E-02
  -4.122472503580409E-02  -4.174291520001769E-02  -4.226760990724723E-02
  -4.279889045944337E-02  -4.333683916154007E-02  -4.388153933332032E-02
  -4.443307532140171E-02  -4.499153251134358E-02  -4.555699733987567E-02
  -4.612955730724801E-02  -4.670930098970378E-02  -4.729631805207365E-02
  -4.789069926049344E-02  -4.849253649524393E-02  -4.910192276371428E-02
  -4.971895221348819E-02  -5.034372014555264E-02  -5.097632302763013E-02
  -5.161685850763358E-02  -5.226542542724408E-02  -5.292212383561146E-02
  -5.358705500317629E-02  -5.426032143561432E-02  -5.494202688790215E-02
  -5.563227637850394E-02  -5.633117620367811E-02  -5.703883395190373E-02
  -5.775535851842590E-02  -5.848086011991861E-02  -5.921545030926504E-02
  -5.995924199045340E-02  -6.071234943358711E-02  -6.147488829000882E-02
  -6.224697560753586E-02  -6.302872984580590E-02  -6.382027089173219E-02
  -6.462172007506409E-02  -6.543320018405349E-02  -6.625483548122316E-02
  -6.708675171923599E-02  -6.792907615686206E-02  -6.878193757504032E-02
  -6.964546629303396E-02  -7.051979418467420E-02  -7.140505469469073E-02
  -7.230138285512565E-02  -7.320891530182584E-02  -7.412779029101148E-02
  -7.505814771591590E-02  -7.600012912349288E-02  -7.695387773118617E-02
  -7.791953844375710E-02  -7.889725787016540E-02  -7.988718434049727E-02
  -8.088946792293528E-02  -8.190426044076467E-02  -8.293171548940841E-02
  -8.397198845348669E-02  -8.502523652389181E-02  -8.609161871487223E-02
  -8.717129588111806E-02  -8.826443073483999E-02  -8.937118786283249E-02
  -9.049173374351366E-02  -9.162623676393171E-02  -9.277486723672836E-02
  -9.393779741704852E-02  -9.511520151938754E-02  -9.630725573436189E-02
  -9.751413824539371E-02  -9.873602924529654E-02  -9.997311095274894E-02
  -1.012255676286423E-01  -1.024935855922903E-01  -1.037773532374836E-01
  -1.050770610483760E-01  -1.063929016151838E-01  -1.077250696496843E-01
  -1.090737620004947E-01  -1.104391776681124E-01  -1.118215178196993E-01
  -1.132209858035880E-01  -1.146377871634928E-01  -1.160721296523986E-01
  -1.175242232461108E-01  -1.189942801564387E-01  -1.204825148439898E-01
  -1.219891440305481E-01  -1.235143867110111E-01  -1.250584641648574E-01
  -1.266215999671156E-01  -1.282040199988040E-01  -1.298059524568121E-01
  -1.314276278631880E-01  -1.330692790738002E-01  -1.347311412863376E-01
  -1.364134520476106E-01  -1.381164512601168E-01  -1.398403811878281E-01
  -1.415854864611619E-01  -1.433520140810909E-01  -1.451402134223463E-01
  -1.469503362356709E-01  -1.487826366490700E-01  -1.506373711680119E-01
  -1.525147986745283E-01  -1.544151804251543E-01  -1.563387800476560E-01
  -1.582858635364881E-01  -1.602566992469167E-01  -1.622515578877485E-01
  -1.642707125125976E-01  -1.663144385096238E-01  -1.683830135896716E-01
  -1.704767177727363E-01  -1.725958333726819E-01  -1.747406449801300E-01
  -1.769114394434421E-01  -1.791085058477057E-01  -1.813321354916388E-01
  -1.835826218623244E-01  -1.858602606076729E-01  -1.881653495065231E-01
  -1.904981884362742E-01  -1.928590793379463E-01  -1.952483261785622E-01
  -1.976662349107307E-01  -2.001131134293236E-01  -2.025892715251192E-01
  -2.050950208352894E-01  -2.076306747906007E-01  -2.101965485591915E-01
  -2.127929589867925E-01  -2.154202245332426E-01  -2.180786652051507E-01
  -2.207686024845547E-01  -2.234903592534113E-01  -2.262442597137594E-01
  -2.290306293033811E-01  -2.318497946067879E-01  -2.347020832613523E-01
  -2.375878238583909E-01  -2.405073458390123E-01  -2.434609793845231E-01
  -2.464490553011930E-01  -2.494719048991603E-01  -2.525298598652571E-01
  -2.556232521295321E-01  -2.587524137252336E-01  -2.619176766420101E-01
  -2.651193726720855E-01  -2.683578332491428E-01  -2.716333892796630E-01
  -2.749463709664384E-01  -2.782971076239835E-01  -2.816859274855577E-01
  -2.851131575014957E-01  -2.885791231285472E-01  -2.920841481099098E-01
  -2.956285542456288E-01  -2.992126611530379E-01  -3.028367860168940E-01
  -3.065012433288621E-01  -3.102063446159861E-01  -3.139523981577794E-01
  -3.177397086915577E-01  -3.215685771056254E-01  -3.254393001199196E-01
  -3.293521699537039E-01  -3.333074739798998E-01  -3.373054943656261E-01
  -3.413465076985118E-01  -3.454307845983445E-01  -3.495585893135921E-01
  -3.537301793023388E-01  -3.579458047971679E-01  -3.622057083535008E-01
  -3.665101243809137E-01  -3.708592786569277E-01  -3.752533878227678E-01
  -3.796926588605816E-01  -3.841772885515891E-01  -3.887074629146433E-01
  -3.932833566246651E-01  -3.979051324104129E-01  -4.025729404310423E-01
  -4.072869176309042E-01  -4.120471870720381E-01  -4.168538572437928E-01
  -4.217070213490258E-01  -4.266067565663232E-01  -4.315531232876780E-01
  -4.365461643310781E-01  -4.415859041274450E-01  -4.466723478813819E-01
  -4.518054807051849E-01  -4.569852667255893E-01  -4.622116481627224E-01
  -4.674845443807534E-01  -4.728038509097447E-01  -4.781694384382235E-01
  -4.835811517760131E-01  -4.890388087868786E-01  -4.945421992905853E-01
  -5.000910839339677E-01  -5.056851930306701E-01  -5.113242253692242E-01
  -5.170078469891948E-01  -5.227356899251495E-01  -5.285073509182634E-01
  -5.343223900954196E-01  -5.401803296157278E-01  -5.460806522844386E-01
  -5.520228001343054E-01  -5.580061729745169E-01  -5.640301269074008E-01
  -5.700939728131912E-01  -5.761969748032448E-01  -5.823383486421889E-01
  -5.885172601395943E-01  -5.947328235118889E-01  -6.009840997153421E-01
  -6.072700947511013E-01  -6.135897579433855E-01  -6.199419801921138E-01
  -6.263255922014034E-01  -6.327393626855404E-01  -6.391819965542310E-01
  -6.456521330791223E-01  -6.521483440437974E-01  -6.586691318796795E-01
  -6.652129277905090E-01  -6.717780898683169E-01  -6.783629012040654E-01
  -6.849655679964211E-01  -6.915842176624283E-01  -6.982168969541217E-01
  -7.048615700854903E-01  -7.115161168745165E-01  -7.181783309053661E-01
  -7.248459177162166E-01  -7.315164930185466E-01  -7.381875809541675E-01
  -7.448566123966701E-01  -7.515209233044173E-01  -7.581777531326651E-01
  -7.648242433128489E-01  -7.714574358076168E-01  -7.780742717506193E-01
  -7.846715901806455E-01  -7.912461268802138E-01  -7.977945133292382E-01
  -8.043132757850012E-01  -8.107988345001821E-01  -8.172475030912952E-01
  -8.236554880704584E-01  -8.300188885539951E-01  -8.363336961619651E-01
  -8.425957951232896E-01  -8.488009626017172E-01  -8.549448692584422E-01
  -8.610230800677311E-01  -8.670310554024572E-01  -8.729641524069208E-01
  -8.788176266748410E-01  -8.845866342508311E-01  -8.902662339740101E-01
  -8.958513901828470E-01  -9.013369758004851E-01  -9.067177758201016E-01
  -9.119884912099069E-01  -9.171437432574389E-01  -9.221780783727510E-01
  -9.270859733698350E-01  -9.318618412453377E-01  -9.365000374731248E-01
  -9.409948668325951E-01  -9.453405907878136E-01  -9.495314354335034E-01
  -9.535616000226660E-01  -9.574252660891186E-01  -9.611166071764284E-01
  -9.646297991827565E-01  -9.679590313286165E-01  -9.710985177520016E-01
  -9.740425097321563E-01  -9.767853085398492E-01  -9.793212789081253E-01
  -9.816448631131750E-01  -9.837505956501542E-01  -9.856331184835125E-01
  -9.872871968454965E-01  -9.887077355501301E-01  -9.898897957829569E-01
  -9.908286123192300E-01  -9.915196111149946E-01  -9.919584272065652E-01
  -9.921409228443236E-01  -9.920632057764880E-01  -9.917216475874264E-01
  -9.911129019834594E-01  -9.902339229065754E-01  -9.890819823433505E-01
  -9.876546876825417E-01  -9.859499984602637E-01  -9.839662423165073E-01
  -9.817021299710331E-01  -9.791567690103742E-01  -9.763296762609782E-01
  -9.732207885064690E-01  -9.698304712896609E-01  -9.661595255226260E-01
  -9.622091916107351E-01  -9.579811507795625E-01  -9.534775232769429E-01
  -9.487008631065819E-01  -9.436541489348306E-01  -9.383407707986452E-01
  -9.327645122309871E-01  -9.269295274101258E-01  -9.208403129321276E-01
  -9.145016738016902E-01  -9.079186832357573E-01  -9.010966358779783E-01
  -8.940409940303484E-01  -8.867573265221286E-01  -8.792512398561200E-01
  -8.715283012992865E-01  -8.635939536194256E-01  -8.554534212132647E-01
  -8.471116074235725E-01  -8.385729829070794E-01  -8.298414649894050E-01
  -8.209202880305330E-01  -8.118118649248790E-01  -8.025176399748198E-01
  -7.930379335064878E-01  -7.833717787425167E-01  -7.735188468568200E-01
  -7.634861685350930E-01  -7.532828157003605E-01  -7.429179392375299E-01
  -7.324007573519455E-01  -7.217405439330937E-01  -7.109466169447265E-01
  -7.000283268449791E-01  -6.889950450789996E-01  -6.778561526381587E-01
  -6.666210278006218E-01  -6.552990275658233E-01  -6.438994932437084E-01
  -6.324317319480638E-01  -6.209050048156070E-01  -6.093285163329054E-01
  -5.977114038388737E-01  -5.860627272157092E-01  -5.743914587800583E-01
  -5.627064733858509E-01  -5.510165387497378E-01  -5.393303060096643E-01
  -5.276563005266813E-01  -5.160029129397019E-01  -5.043783904825621E-01
  -4.927908285723488E-01  -4.812481626776615E-01  -4.697581604751274E-01
  -4.583284143022013E-01  -4.469663339139880E-01  -4.356791395515363E-01
  -4.244738553288057E-01  -4.133573029452224E-01  -4.023360957304910E-01
  -3.914166330280798E-01  -3.806050949235184E-01  -3.699074373234012E-01
  -3.593293873906981E-01  -3.488764393417069E-01  -3.385538506096736E-01
  -3.283666383797881E-01  -3.183195764999341E-01  -3.084171927712071E-01
  -2.986637666218281E-01  -2.890633271676787E-01  -2.796196516622199E-01
  -2.703362643381061E-01  -2.612164356422775E-01  -2.522631818657864E-01
  -2.434792651690300E-01  -2.348671940024437E-01  -2.264292239220762E-01
  -2.181673587987656E-01  -2.100833524189319E-01  -2.021787104742472E-01
  -1.944546929366548E-01  -1.869123168144125E-01  -1.795523592839803E-01
  -1.723753611917233E-01  -1.653816309185117E-01  -1.585712485994019E-01
  -1.519440706896719E-01  -1.454997348675592E-01  -1.392376652631313E-01
  -1.331570780017896E-01  -1.272569870499924E-01  -1.215362103498798E-01
  -1.159933762285911E-01  -1.106269300672013E-01  -1.054351412133694E-01
  -1.004161101209805E-01  -9.556777569931157E-02  -9.088792285352383E-02
  -8.637419019762263E-02  -8.202407792041733E-02  -7.783495578445929E-02
  -7.380407123746041E-02  -6.992855761527654E-02  -6.620544241520793E-02
  -6.263165561810997E-02  -5.920403803762837E-02  -5.591934967478679E-02
  -5.277427805614689E-02  -4.976544653384785E-02  -4.688942252600967E-02
  -4.414272567624699E-02  -4.152183591140280E-02  -3.902320137705619E-02
  -3.664324623089814E-02  -3.437837827469410E-02  -3.222499640626249E-02
  -3.017949787369195E-02  -2.823828531489115E-02  -2.639777356651088E-02
  -2.465439622729440E-02  -2.300461196199140E-02  -2.144491053311008E-02
  -1.997181854897309E-02  -1.858190491777953E-02  -1.727178599865230E-02
  -1.603813044195606E-02  -1.487766371250420E-02  -1.378717229061970E-02
  -1.276350754737212E-02  -1.180358929166961E-02  -1.090440898823406E-02
  -1.006303264682240E-02  -9.276603384367744E-03  -8.542343662995187E-03
  -7.857557208109808E-03  -7.219630611952029E-03  -6.626034629162158E-03
  -6.074325171984186E-03  -5.562144013763922E-03  -5.087219210352776E-03
  -4.647365249910882E-03  -4.240482942408508E-03  -3.864559060848451E-03
  -3.517665746872188E-03  -3.197959693966638E-03  -2.903681121954488E-03
  -2.633152556829388E-03  -2.384777430286589E-03  -2.157038513501315E-03
  -1.948496199821928E-03  -1.757786651074789E-03  -1.583619822125154E-03
  -1.424777378206270E-03  -1.280110519320794E-03  -1.148537725738672E-03
  -1.029042438268097E-03  -9.206706865662145E-04  -8.225286782887256E-04
  -7.337803613582582E-04  -6.536449710658309E-04  -5.813945731138563E-04
  -5.163516130689570E-04  -4.578864820243072E-04  -4.054151075803809E-04
  -3.583965785457841E-04  -3.163308110420780E-04  -2.787562629738928E-04
  -2.452477031035282E-04  -2.154140402529142E-04  -1.888962174500653E-04
  -1.653651751465975E-04  -1.445198869616666E-04  -1.260854707596094E-04
  -1.098113772470608E-04  -9.546965768332030E-05  -8.285331173783035E-05
  -7.177471600292822E-05  -6.206413318022712E-05  -5.356830150636763E-05
  -4.614910356931759E-05  -3.968231329035552E-05  -3.405641950946513E-05
  -2.917152431282202E-05  -2.493831397980072E-05  -2.127710020257205E-05
  -1.811692904271807E-05  -1.539475493487810E-05  -1.305467692700494E-05
  -1.104723425361615E-05  -9.328758279339246E-06  -7.860777815004812E-06
  -6.609474796606475E-06  -5.545187332412323E-06  -4.641957155375299E-06
  -3.877118569212978E-06  -3.230926043487708E-06  -2.686217693622798E-06
  -2.228111973930918E-06  -1.843740145348058E-06  -1.522042278295539E-06
  -1.253447973594843E-06  -1.029734702367533E-06  -8.438602291706358E-07
  -6.898082267399764E-07  -5.624517934009385E-07  -4.574331241998318E-07
  -3.710577141244056E-07  -3.002015953588004E-07  -2.422302297258799E-07
  -1.949277918290109E-07  -1.564356873816783E-07  -1.251992547359928E-07
  -9.992169523992293E-08  -7.952436979411286E-08  -6.311268476161252E-08
  -4.994687024936983E-08  -3.941702783771656E-08  -3.102189325574450E-08
  -2.435082252010371E-08  -1.906856796640954E-08  -1.490246376289754E-08
  -1.163168933178934E-08  -9.078324125038695E-09  -7.062872376499205E-09
  -5.477121284925028E-09  -4.233514028420879E-09  -3.261439999576210E-09
  -2.504144592500188E-09  -1.916163994566152E-09  -1.461203246962636E-09
  -1.110387190983346E-09  -8.408239321291861E-10  -6.344292495498231E-10
  -4.769680681180635E-10  -3.572758034890213E-10  -2.666281900436048E-10
  -1.982332045071079E-10  -1.468229944229538E-10  -1.083273938071604E-10
  -7.961373453467302E-11  -5.828031077537533E-11  -4.249308789263348E-11
  -3.085712301389520E-11  -2.231573226959048E-11  -1.607174404975328E-11
  -1.152625781597015E-11  -8.231218411749311E-12  -5.852846360739055E-12
  -4.143561218311082E-12  -2.920519914909719E-12  -2.049284239962691E-12
  -1.431447351008851E-12  -9.953021377262646E-13  -6.888359255443110E-13
  -4.744959795918293E-13  -3.252965531113283E-13  -2.219374135572458E-13
  -1.506812951684695E-13  -1.017979968674211E-13  -6.842946534597564E-14
  -4.576607954468859E-14  -3.045181648833087E-14  -2.015689137655918E-14
  -1.327230467739884E-14  -8.692661847933304E-15  -5.662572057527248E-15
  -3.668594428043271E-15  -2.363637041512713E-15  -1.514351673191909E-15
  -9.647325440154573E-16  -6.110691069650320E-16  -3.848092716532824E-16
  -2.409021745928285E-16  -1.499145206112745E-16  -9.273034079406291E-17
  -5.700883488511207E-17  -3.483142091163395E-17  -2.114828122421098E-17
  -1.275908522603894E-17  -7.648387117525851E-18  -4.555026360889238E-18
  -2.694927246372144E-18  -1.583807051580651E-18  -9.245280275769658E-19
  -5.359984331760773E-19  -3.085994659990879E-19  -1.764319130987343E-19
  -1.001546400642801E-19  -5.644664270998789E-20  -3.158194936524920E-20
  -1.754016576129573E-20  -9.669011257272865E-21  -5.289848226170859E-21
  -2.871942748032853E-21  -1.547169489074917E-21  -8.269650496920790E-22
  -4.385111433643694E-22  -2.306613642297895E-22  -1.203443768906737E-22
  -6.227143874962586E-23  -3.195354264900617E-23  -1.625812453726264E-23
  -8.201568512714814E-24  -4.101583624261083E-24  -2.033232104081454E-24
  -9.989759591364135E-25  -4.864152217216224E-25  -2.346897157911871E-25
  -1.121930262222048E-25  -5.313394482118986E-26  -2.492651192460552E-26
  -1.158196973174305E-26  -5.329449728910629E-27  -2.428333026357359E-27
  -1.095484634827264E-27  -4.892401171270504E-28  -2.162720683590871E-28
  -9.462057621478435E-29  -4.096575890931326E-29  -1.754888188178083E-29
  -7.437260182375233E-30  -3.117833338396125E-30  -1.292735862613230E-30
  -5.300581424709404E-31  -2.148983661670949E-31  -8.613445655989688E-32
  -3.412655570778468E-32  -1.336338511215644E-32  -5.171123968879771E-33
  -1.977119875182711E-33  -7.467839483089027E-34  -2.786149226656678E-34
  -1.026582530517179E-34  -3.735040244632165E-35  -1.341651089777609E-35
   0.000000000000000E+00   0.000000000000000E+00   0.000000000000000E+00
   0.000000000000000E+00   0.000000000000000E+00   0.000000000000000E+00
   0.000000000000000E+00   0.000000000000000E+00   0.000000000000000E+00
   0.000000000000000E+00   0.000000000000000E+00   0.000000000000000E+00
   0.000000000000000E+00   0.000000000000000E+00   0.000000000000000E+00
   0.000000000000000E+00   0.000000000000000E+00   0.000000000000000E+00
   0.000000000000000E+00   0.000000000000000E+00   0.000000000000000E+00
   0.000000000000000E+00   0.000000000000000E+00   0.000000000000000E+00
   0.000000000000000E+00   0.000000000000000E+00   0.000000000000000E+00
   0.000000000000000E+00   0.000000000000000E+00   0.000000000000000E+00
   0.000000000000000E+00   0.000000000000000E+00   0.000000000000000E+00
   0.000000000000000E+00   0.000000000000000E+00   0.000000000000000E+00
    </PP_CHI.1>
    <PP_CHI.2 size="1095" index="2" label="2P" l="1" occupation="4.0000000000000000" n="2" cutoff_radius="0.90000000000000002" ultrasoft_cutoff_radius="1.3500000000000001">
  -3.447958005250884E-08  -3.535243476260830E-08  -3.624738589414743E-08
  -3.716499282066673E-08  -3.810582907630650E-08  -3.907048271429091E-08
  -4.005955667448023E-08  -4.107366916022765E-08  -4.211345402477633E-08
  -4.317956116743824E-08  -4.427265693980208E-08  -4.539342456222448E-08
  -4.654256455086502E-08  -4.772079515553090E-08  -4.892885280860689E-08
  -5.016749258534868E-08  -5.143748867582964E-08  -5.273963486883424E-08
  -5.407474504800179E-08  -5.544365370053008E-08  -5.684721643875632E-08
  -5.828631053494253E-08  -5.976183546959913E-08  -6.127471349368879E-08
  -6.282589020506339E-08  -6.441633513949263E-08  -6.604704237665517E-08
  -6.771903116147040E-08  -6.943334654115914E-08  -7.119106001843174E-08
  -7.299327022121161E-08  -7.484110358931299E-08  -7.673571507850158E-08
  -7.867828888237927E-08  -8.067003917254296E-08  -8.271221085748054E-08
  -8.480608036067871E-08  -8.695295641842834E-08  -8.915418089782624E-08
  -9.141112963548566E-08  -9.372521329747729E-08  -9.609787826104114E-08
  -9.853060751861814E-08  -1.010249216047680E-07  -1.035823795465515E-07
  -1.062045798379719E-07  -1.088931614390850E-07  -1.116498048004013E-07
  -1.144762329132203E-07  -1.173742123865559E-07  -1.203455545513223E-07
  -1.233921165924733E-07  -1.265158027098022E-07  -1.297185653081269E-07
  -1.330024062176046E-07  -1.363693779449390E-07  -1.398215849562620E-07
  -1.433611849924917E-07  -1.469903904179882E-07  -1.507114696033513E-07
  -1.545267483432239E-07  -1.584386113099863E-07  -1.624495035442522E-07
  -1.665619319830953E-07  -1.707784670269645E-07  -1.751017441462642E-07
  -1.795344655286063E-07  -1.840794017677618E-07  -1.887393935953687E-07
  -1.935173536564789E-07  -1.984162683300505E-07  -2.034391995955300E-07
  -2.085892869466830E-07  -2.138697493538771E-07  -2.192838872760374E-07
  -2.248350847235362E-07  -2.305268113733047E-07  -2.363626247374873E-07
  -2.423461723869987E-07  -2.484811942313676E-07  -2.547715248562949E-07
  -2.612210959203886E-07  -2.678339386125711E-07  -2.746141861716964E-07
  -2.815660764699518E-07  -2.886939546616566E-07  -2.960022758991172E-07
  -3.034956081172326E-07  -3.111786348885938E-07  -3.190561583508587E-07
  -3.271331022082351E-07  -3.354145148089427E-07  -3.439055723005859E-07
  -3.526115818654014E-07  -3.615379850374073E-07  -3.706903611035257E-07
  -3.800744305908038E-07  -3.896960588419154E-07  -3.995612596811758E-07
  -4.096761991733604E-07  -4.200471994776794E-07  -4.306807427993135E-07
  -4.415834754409871E-07  -4.527622119571005E-07  -4.642239394130296E-07
  -4.759758217522468E-07  -4.880252042739939E-07  -5.003796182243103E-07
  -5.130467855032809E-07  -5.260346234914482E-07  -5.393512499984033E-07
  -5.530049883366538E-07  -5.670043725239308E-07  -5.813581526171968E-07
  -5.960753001816809E-07  -6.111650138983615E-07  -6.266367253134041E-07
  -6.425001047331445E-07  -6.587650672683021E-07  -6.754417790312039E-07
  -6.925406634898864E-07  -7.100724079830550E-07  -7.280479703999650E-07
  -7.464785860294063E-07  -7.653757745820674E-07  -7.847513473906684E-07
  -8.046174147923660E-07  -8.249863936980420E-07  -8.458710153532065E-07
  -8.672843332953673E-07  -8.892397315128397E-07  -9.117509328100918E-07
  -9.348320073848606E-07  -9.584973816223928E-07  -9.827618471123099E-07
  -1.007640569893736E-06  -1.033149099934462E-06  -1.059303380850068E-06
  -1.086119759869093E-06  -1.113614998050458E-06  -1.141806280759552E-06
  -1.170711228409505E-06  -1.200347907474382E-06  -1.230734841781171E-06
  -1.261891024087620E-06  -1.293835927953164E-06  -1.326589519910365E-06
  -1.360172271944463E-06  -1.394605174288843E-06  -1.429909748544416E-06
  -1.466108061131107E-06  -1.503222737079864E-06  -1.541276974173815E-06
  -1.580294557447386E-06  -1.620299874052470E-06  -1.661317928500918E-06
  -1.703374358292889E-06  -1.746495449940828E-06  -1.790708155399074E-06
  -1.836040108909384E-06  -1.882519644272888E-06  -1.930175812559273E-06
  -1.979038400264259E-06  -2.029137947926699E-06  -2.080505769216753E-06
  -2.133173970508013E-06  -2.187175470944372E-06  -2.242544023015019E-06
  -2.299314233650317E-06  -2.357521585851754E-06  -2.417202460869352E-06
  -2.478394160940584E-06  -2.541134932604816E-06  -2.605463990608001E-06
  -2.671421542412472E-06  -2.739048813327153E-06  -2.808388072274003E-06
  -2.879482658206607E-06  -2.952377007197606E-06  -3.027116680211808E-06
  -3.103748391582282E-06  -3.182320038207419E-06  -3.262880729486950E-06
  -3.345480818015852E-06  -3.430171931055241E-06  -3.517007002799802E-06
  -3.606040307462206E-06  -3.697327493194865E-06  -3.790925616870446E-06
  -3.886893179742835E-06  -3.985290164010691E-06  -4.086178070306753E-06
  -4.189619956135930E-06  -4.295680475286526E-06  -4.404425918239106E-06
  -4.515924253598117E-06  -4.630245170572507E-06  -4.747460122531437E-06
  -4.867642371662707E-06  -4.990867034761599E-06  -5.117211130178667E-06
  -5.246753625956144E-06  -5.379575489182622E-06  -5.515759736597166E-06
  -5.655391486474432E-06  -5.798558011822929E-06  -5.945348794930197E-06
  -6.095855583288397E-06  -6.250172446935717E-06  -6.408395837249243E-06
  -6.570624647225860E-06  -6.736960273289321E-06  -6.907506678661538E-06
  -7.082370458338128E-06  -7.261660905708631E-06  -7.445490080862903E-06
  -7.633972880626804E-06  -7.827227110370366E-06  -8.025373557633667E-06
  -8.228536067616495E-06  -8.436841620578473E-06  -8.650420411198767E-06
  -8.869405929944165E-06  -9.093935046496913E-06  -9.324148095294345E-06
  -9.560188963233310E-06  -9.802205179595086E-06  -1.005034800824588E-05
  -1.030477254217139E-05  -1.056563780040409E-05  -1.083310682740373E-05
  -1.110734679495360E-05  -1.138852910663543E-05  -1.167682950494899E-05
  -1.197242818114299E-05  -1.227550988782549E-05  -1.258626405442515E-05
  -1.290488490557424E-05  -1.323157158248842E-05  -1.356652826741853E-05
  -1.390996431125204E-05  -1.426209436434460E-05  -1.462313851066239E-05
  -1.499332240531990E-05  -1.537287741559861E-05  -1.576204076553488E-05
  -1.616105568416712E-05  -1.657017155753504E-05  -1.698964408452588E-05
  -1.741973543666493E-05  -1.786071442195006E-05  -1.831285665283281E-05
  -1.877644471845054E-05  -1.925176836121780E-05  -1.973912465788669E-05
  -2.023881820518943E-05  -2.075116131017926E-05  -2.127647418538825E-05
  -2.181508514892413E-05  -2.236733082963095E-05  -2.293355637744162E-05
  -2.351411567905396E-05  -2.410937157906455E-05  -2.471969610669870E-05
  -2.534547070827834E-05  -2.598708648557211E-05  -2.664494444017762E-05
  -2.731945572408746E-05  -2.801104189659594E-05  -2.872013518770707E-05
  -2.944717876820731E-05  -3.019262702657315E-05  -3.095694585288473E-05
  -3.174061292992402E-05  -3.254411803163898E-05  -3.336796332915892E-05
  -3.421266370455407E-05  -3.507874707253319E-05  -3.596675471028099E-05
  -3.687724159564145E-05  -3.781077675385724E-05  -3.876794361308242E-05
  -3.974934036888960E-05  -4.075558035799932E-05  -4.178729244146528E-05
  -4.284512139755333E-05  -4.392972832456086E-05  -4.504179105382610E-05
  -4.618200457318683E-05  -4.735108146115157E-05  -4.854975233205371E-05
  -4.977876629246768E-05  -5.103889140917040E-05  -5.233091518894060E-05
  -5.365564507049504E-05  -5.501390892886826E-05  -5.640655559255128E-05
  -5.783445537370976E-05  -5.929850061181443E-05  -6.079960623102122E-05
  -6.233871031164895E-05  -6.391677467611167E-05  -6.553478548966897E-05
  -6.719375387637054E-05  -6.889471655057874E-05  -7.063873646446070E-05
  -7.242690347185638E-05  -7.426033500893388E-05  -7.614017679205712E-05
  -7.806760353330140E-05  -8.004381967406040E-05  -8.207006013720380E-05
  -8.414759109825280E-05  -8.627771077605401E-05  -8.846175024344433E-05
  -9.070107425841154E-05  -9.299708211626820E-05  -9.535120852336866E-05
  -9.776492449291352E-05  -1.002397382634004E-04  -1.027771962402899E-04
  -1.053788839614758E-04  -1.080464270871569E-04  -1.107814924147296E-04
  -1.135857889193310E-04  -1.164610688206795E-04  -1.194091286768762E-04
  -1.224318105058494E-04  -1.255310029351364E-04  -1.287086423807196E-04
  -1.319667142556498E-04  -1.353072542092053E-04  -1.387323493973595E-04
  -1.422441397853473E-04  -1.458448194831334E-04  -1.495366381146220E-04
  -1.533219022214468E-04  -1.572029767022237E-04  -1.611822862881516E-04
  -1.652623170558810E-04  -1.694456179785914E-04  -1.737348025162329E-04
  -1.781325502459270E-04  -1.826416085335319E-04  -1.872647942474109E-04
  -1.920049955154696E-04  -1.968651735265429E-04  -2.018483643772579E-04
  -2.069576809655099E-04  -2.121963149317299E-04  -2.175675386491421E-04
  -2.230747072642441E-04  -2.287212607887757E-04  -2.345107262444678E-04
  -2.404467198619020E-04  -2.465329493348387E-04  -2.527732161314063E-04
  -2.591714178635868E-04  -2.657315507164542E-04  -2.724577119386731E-04
  -2.793541023957964E-04  -2.864250291879289E-04  -2.936749083333883E-04
  -3.011082675200065E-04  -3.087297489257924E-04  -3.165441121105910E-04
  -3.245562369808297E-04  -3.327711268286268E-04  -3.411939114478190E-04
  -3.498298503281126E-04  -3.586843359300722E-04  -3.677628970422735E-04
  -3.770712022230488E-04  -3.866150633290684E-04  -3.964004391325015E-04
  -4.064334390293509E-04  -4.167203268410505E-04  -4.272675247117789E-04
  -4.380816171036325E-04  -4.491693548927412E-04  -4.605376595677499E-04
  -4.721936275343927E-04  -4.841445345280290E-04  -4.963978401372515E-04
  -5.089611924410270E-04  -5.218424327623095E-04  -5.350496005413889E-04
  -5.485909383313270E-04  -5.624748969188927E-04  -5.767101405741735E-04
  -5.913055524319660E-04  -6.062702400079703E-04  -6.216135408537653E-04
  -6.373450283533514E-04  -6.534745176651685E-04  -6.700120718130102E-04
  -6.869680079297813E-04  -7.043529036576727E-04  -7.221776037084247E-04
  -7.404532265884034E-04  -7.591911714914787E-04  -7.784031253651047E-04
  -7.981010701526311E-04  -8.182972902171354E-04  -8.390043799509752E-04
  -8.602352515753215E-04  -8.820031431349613E-04  -9.043216266925871E-04
  -9.272046167280997E-04  -9.506663787472048E-04  -9.747215381052994E-04
  -9.993850890512904E-04  -1.024672403997031E-03  -1.050599243018087E-03
  -1.077181763590836E-03  -1.104436530572642E-03  -1.132380526430303E-03
  -1.161031161723162E-03  -1.190406285847012E-03  -1.220524198045341E-03
  -1.251403658694203E-03  -1.283063900867444E-03  -1.315524642189297E-03
  -1.348806096981239E-03  -1.382928988709931E-03  -1.417914562743748E-03
  -1.453784599426637E-03  -1.490561427473971E-03  -1.528267937701396E-03
  -1.566927597093342E-03  -1.606564463217853E-03  -1.647203199000424E-03
  -1.688869087859778E-03  -1.731588049219543E-03  -1.775386654400547E-03
  -1.820292142906545E-03  -1.866332439109863E-03  -1.913536169348853E-03
  -1.961932679444103E-03  -2.011552052647244E-03  -2.062425128028954E-03
  -2.114583519318806E-03  -2.168059634206969E-03  -2.222886694118408E-03
  -2.279098754472318E-03  -2.336730725434214E-03  -2.395818393178465E-03
  -2.456398441667457E-03  -2.518508474961943E-03  -2.582187040076865E-03
  -2.647473650390927E-03  -2.714408809626163E-03  -2.783034036410538E-03
  -2.853391889435665E-03  -2.925525993224378E-03  -2.999481064520545E-03
  -3.075302939320004E-03  -3.153038600549911E-03  -3.232736206418976E-03
  -3.314445119448104E-03  -3.398215936200968E-03  -3.484100517726295E-03
  -3.572152020732033E-03  -3.662424929505651E-03  -3.754975088596671E-03
  -3.849859736279676E-03  -3.947137538816198E-03  -4.046868625529601E-03
  -4.149114624714846E-03  -4.253938700398897E-03  -4.361405589971386E-03
  -4.471581642704615E-03  -4.584534859181437E-03  -4.700334931651710E-03
  -4.819053285335254E-03  -4.940763120694835E-03  -5.065539456696009E-03
  -5.193459175077284E-03  -5.324601065651960E-03  -5.459045872659752E-03
  -5.596876342195373E-03  -5.738177270731074E-03  -5.883035554759511E-03
  -6.031540241577413E-03  -6.183782581233165E-03  -6.339856079663738E-03
  -6.499856553041904E-03  -6.663882183359051E-03  -6.832033575267893E-03
  -7.004413814208932E-03  -7.181128525845277E-03  -7.362285936831739E-03
  -7.547996936941394E-03  -7.738375142576788E-03  -7.933536961690836E-03
  -8.133601660141557E-03  -8.338691429509307E-03  -8.548931456398798E-03
  -8.764449993255040E-03  -8.985378430719001E-03  -9.211851371546264E-03
  -9.444006706118332E-03  -9.681985689571007E-03  -9.925933020565509E-03
  -1.017599692173068E-02  -1.043232922179900E-02  -1.069508543946478E-02
  -1.096442486898861E-02  -1.124051066757466E-02  -1.152350994454464E-02
  -1.181359385233292E-02  -1.211093767932851E-02  -1.241572094458770E-02
  -1.272812749443717E-02  -1.304834560099576E-02  -1.337656806263210E-02
  -1.371299230638189E-02  -1.405782049234412E-02  -1.441125962007659E-02
  -1.477352163700817E-02  -1.514482354888619E-02  -1.552538753227342E-02
  -1.591544104911161E-02  -1.631521696336372E-02  -1.672495365974531E-02
  -1.714489516455835E-02  -1.757529126863276E-02  -1.801639765238338E-02
  -1.846847601298554E-02  -1.893179419367245E-02  -1.940662631515219E-02
  -1.989325290914194E-02  -2.039196105401274E-02  -2.090304451253589E-02
  -2.142680387171863E-02  -2.196354668471233E-02  -2.251358761477523E-02
  -2.307724858126341E-02  -2.365485890762422E-02  -2.424675547136090E-02
  -2.485328285592672E-02  -2.547479350451156E-02  -2.611164787566961E-02
  -2.676421460073765E-02  -2.743287064298107E-02  -2.811800145840600E-02
  -2.882000115816016E-02  -2.953927267244632E-02  -3.027622791585852E-02
  -3.103128795404550E-02  -3.180488317159828E-02  -3.259745344104668E-02
  -3.340944829284343E-02  -3.424132708620060E-02  -3.509355918063859E-02
  -3.596662410808698E-02  -3.686101174537639E-02  -3.777722248693811E-02
  -3.871576741751904E-02  -3.967716848470989E-02  -4.066195867105814E-02
  -4.167068216553991E-02  -4.270389453412755E-02  -4.376216288919116E-02
  -4.484606605744658E-02  -4.595619474613927E-02  -4.709315170714504E-02
  -4.825755189863798E-02  -4.945002264396096E-02  -5.067120378730616E-02
  -5.192174784579506E-02  -5.320232015751891E-02  -5.451359902507483E-02
  -5.585627585410761E-02  -5.723105528633850E-02  -5.863865532653003E-02
  -6.007980746281038E-02  -6.155525677974102E-02  -6.306576206348730E-02
  -6.461209589840661E-02  -6.619504475433971E-02  -6.781540906385007E-02
  -6.947400328861389E-02  -7.117165597412679E-02  -7.290920979184833E-02
  -7.468752156785917E-02  -7.650746229706193E-02  -7.836991714190628E-02
  -8.027578541457374E-02  -8.222598054149820E-02  -8.422143000905313E-02
  -8.626307528917419E-02  -8.835187174363192E-02  -9.048878850561216E-02
  -9.267480833719413E-02  -9.491092746126015E-02  -9.719815536630316E-02
  -9.953751458252770E-02  -1.019300404275790E-01  -1.043767807201591E-01
  -1.068787954597142E-01  -1.094371564703132E-01  -1.120529470067450E-01
  -1.147272613208062E-01  -1.174612041856493E-01  -1.202558903759985E-01
  -1.231124441019480E-01  -1.260319983939781E-01  -1.290156944367425E-01
  -1.320646808490873E-01  -1.351801129076901E-01  -1.383631517116050E-01
  -1.416149632849251E-01  -1.449367176146852E-01  -1.483295876210382E-01
  -1.517947480566572E-01  -1.553333743322297E-01  -1.589466412648301E-01
  -1.626357217458742E-01  -1.664017853252840E-01  -1.702459967084149E-01
  -1.741695141622312E-01  -1.781734878271412E-01  -1.822590579308549E-01
  -1.864273529005611E-01  -1.906794873696793E-01  -1.950165600754014E-01
  -1.994396516432045E-01  -2.039498222545007E-01  -2.085481091935714E-01
  -2.132355242699461E-01  -2.180130511123972E-01  -2.228816423307492E-01
  -2.278422165417616E-01  -2.328956552554041E-01  -2.380427996179262E-01
  -2.432844470082473E-01  -2.486213474843087E-01  -2.540542000762102E-01
  -2.595836489231243E-01  -2.652102792512138E-01  -2.709346131900310E-01
  -2.767571054251519E-01  -2.826781386851639E-01  -2.886980190614497E-01
  -2.948169711596610E-01  -3.010351330822430E-01  -3.073525512418458E-01
  -3.137691750060936E-01  -3.202848511747509E-01  -3.268993182910611E-01
  -3.336122007897843E-01  -3.404230029852592E-01  -3.473311029037766E-01
  -3.543357459654740E-01  -3.614360385220587E-01  -3.686309412578322E-01
  -3.759192624626720E-01  -3.832996511870391E-01  -3.907705902904503E-01
  -3.983303893964263E-01  -4.059771777685736E-01  -4.137088971241731E-01
  -4.215232944035720E-01  -4.294179145155992E-01  -4.373900930813594E-01
  -4.454369492009852E-01  -4.535553782702157E-01  -4.617420448762040E-01
  -4.699933758044718E-01  -4.783055531916635E-01  -4.866745078615838E-01
  -4.950959128848733E-01  -5.035651774058046E-01  -5.120774407827344E-01
  -5.206275670920291E-01  -5.292101400486056E-01  -5.378194583995496E-01
  -5.464495318508037E-01  -5.550940775902908E-01  -5.637465174744012E-01
  -5.723999759482213E-01  -5.810472787732861E-01  -5.896809526400880E-01
  -5.982932257457373E-01  -6.068760294203580E-01  -6.154210008886986E-01
  -6.239194872560924E-01  -6.323625508103322E-01  -6.407409757329828E-01
  -6.490452763152640E-01  -6.572657067747284E-01  -6.653922727694006E-01
  -6.734147447059016E-01  -6.813226729370571E-01  -6.891054049426963E-01
  -6.967521045844711E-01  -7.042517735215568E-01  -7.115932748689522E-01
  -7.187653591734499E-01  -7.257566927743064E-01  -7.325558886058737E-01
  -7.391515394878135E-01  -7.455322539350197E-01  -7.516866945035563E-01
  -7.576036186709095E-01  -7.632719222283119E-01  -7.686806851396133E-01
  -7.738192197952017E-01  -7.786771215603445E-01  -7.832443214851647E-01
  -7.875111410079413E-01  -7.914683484444910E-01  -7.951072170139095E-01
  -7.984195841048921E-01  -8.013979114370932E-01  -8.040353457185884E-01
  -8.063257793434067E-01  -8.082639106125467E-01  -8.098453028978467E-01
  -8.110664421009474E-01  -8.119247916895388E-01  -8.124188445205919E-01
  -8.125481705858729E-01  -8.123134597392732E-01  -8.117165583892086E-01
  -8.107604990634166E-01  -8.094495216789700E-01  -8.077890852785274E-01
  -8.057858689260969E-01  -8.034477603936810E-01  -8.007838312157671E-01
  -7.978042966440004E-01  -7.945204590016478E-01  -7.909446329193633E-01
  -7.870900509329780E-01  -7.829707479436547E-01  -7.786014230840945E-01
  -7.739972776049974E-01  -7.691738274974737E-01  -7.641466897036580E-01
  -7.589313409426691E-01  -7.535428483980600E-01  -7.479955717784715E-01
  -7.423028365807263E-01  -7.364765787577291E-01  -7.305269614262079E-01
  -7.244619647452016E-01  -7.182869506580977E-01  -7.120042048216625E-01
  -7.056124587461786E-01  -6.991084044845661E-01  -6.924938518513566E-01
  -6.857722841646037E-01  -6.789472301833374E-01  -6.720222609228328E-01
  -6.650009865014684E-01  -6.578870530228785E-01  -6.506841394985967E-01
  -6.433959548047421E-01  -6.360262346936292E-01  -6.285787383102078E-01
  -6.210572409818975E-01  -6.134655410517930E-01  -6.058074527846153E-01
  -5.980868030743485E-01  -5.903074287430973E-01  -5.824731738903239E-01
  -5.745878872918569E-01  -5.666554198478686E-01  -5.586796220787325E-01
  -5.506643416673838E-01  -5.426134210466014E-01  -5.345306950294019E-01
  -5.264199884805559E-01  -5.182851140270875E-01  -5.101298698054745E-01
  -5.019580372431872E-01  -4.937733788721182E-01  -4.855796361714093E-01
  -4.773805274371891E-01  -4.691797456767228E-01  -4.609809565245377E-01
  -4.527877961781568E-01  -4.446038693511549E-01  -4.364327472413984E-01
  -4.282779655124547E-01  -4.201430222863504E-01  -4.120313761460369E-01
  -4.039464441461439E-01  -3.958915998308393E-01  -3.878701712578576E-01
  -3.798854390280380E-01  -3.719406343199939E-01  -3.640389369298236E-01
  -3.561834733160898E-01  -3.483773146505997E-01  -3.406234748758372E-01
  -3.329249087702358E-01  -3.252845100227797E-01  -3.177051093187775E-01
  -3.101894724389452E-01  -3.027402983742712E-01  -2.953602174594386E-01
  -2.880517895278786E-01  -2.808175020918239E-01  -2.736597685509963E-01
  -2.665809264338342E-01  -2.595832356754031E-01  -2.526688769363502E-01
  -2.458399499674793E-01  -2.390984720246866E-01  -2.324463763391704E-01
  -2.258855106479446E-01  -2.194176357897976E-01  -2.130444243719135E-01
  -2.067674595124162E-01  -2.005882336641192E-01  -1.945081475247498E-01
  -1.885285090388711E-01  -1.826505324966561E-01  -1.768753377345565E-01
  -1.712039494427767E-01  -1.656372965842929E-01  -1.601762119299575E-01
  -1.548214317140036E-01  -1.495735954139999E-01  -1.444332456590228E-01
  -1.394008282694948E-01  -1.344766924317957E-01  -1.296610910103856E-01
  -1.249541809997883E-01  -1.203560241183676E-01  -1.158665875453972E-01
  -1.114857448024698E-01  -1.072132767798250E-01  -1.030488729076897E-01
  -9.899213247222984E-02  -9.504256607521222E-02  -9.119959723595585E-02
  -8.746256413364541E-02  -8.383072148755437E-02  -8.030324257221370E-02
  -7.687922136404921E-02  -7.355767481550061E-02  -7.033754525214431E-02
  -6.721770288785267E-02  -6.419694845255487E-02  -6.127401592671226E-02
  -5.844757537618728E-02  -5.571623588077713E-02  -5.307854854929811E-02
  -5.053300961374893E-02  -4.807806359475567E-02  -4.571210653020231E-02
  -4.343348925869218E-02  -4.124052074925522E-02  -3.913147146852736E-02
  -3.710457677647648E-02  -3.515804034163388E-02  -3.329003756672001E-02
  -3.149871901551745E-02  -2.978221383185390E-02  -2.813863314160700E-02
  -2.656607342873158E-02  -2.506261987644160E-02  -2.362634966484823E-02
  -2.225533521656486E-02  -2.094764738203721E-02  -1.970135855663839E-02
  -1.851454572188838E-02  -1.738529340350669E-02  -1.631169653938958E-02
  -1.529186325101301E-02  -1.432391751219896E-02  -1.340600170964337E-02
  -1.253627909008432E-02  -1.171293608948887E-02  -1.093418454015146E-02
  -1.019826375212259E-02  -9.503442465923584E-03  -8.848020674043876E-03
  -8.230331309262944E-03  -7.648741798383638E-03  -7.101655480505053E-03
  -6.587512889499141E-03  -6.104792900881543E-03  -5.652013743782166E-03
  -5.227733879221545E-03  -4.830552746382190E-03  -4.459111379028716E-03
  -4.112092894672802E-03  -3.788222859498240E-03  -3.486269532455117E-03
  -3.205043992298536E-03  -2.943400151686025E-03  -2.700234662756062E-03
  -2.474486718888542E-03  -2.265137757594776E-03  -2.071211069699591E-03
  -1.891771320161053E-03  -1.725923986023991E-03  -1.572814717122115E-03
  -1.431628625230402E-03  -1.301589507425002E-03  -1.181959009433091E-03
  -1.072035734750549E-03  -9.711543052722235E-04  -8.786843791190693E-04
  -7.940296312585252E-04  -7.166267023973438E-04  -6.459441215403913E-04
  -5.814812073419878E-04  -5.227669533080210E-04  -4.693589017093042E-04
  -4.208420107506567E-04  -3.768275194338113E-04  -3.369518142587324E-04
  -3.008753016666356E-04  -2.682812898710755E-04  -2.388748834571475E-04
  -2.123818938558625E-04  -1.885482923818556E-04  -1.671433113996583E-04
  -1.479482883061633E-04  -1.307607345546995E-04  -1.153939649817428E-04
  -1.016761342244884E-04  -8.944930818187510E-05  -7.856857121819758E-05
  -6.890116962391470E-05  -6.032569167093880E-05  -5.273128443018185E-05
  -4.601690736542935E-05  -4.009062255514976E-05  -3.486892126922576E-05
  -3.027608649453595E-05  -2.624359089038195E-05  -2.270952955451961E-05
  -1.961808689443515E-05  -1.691903682762430E-05  -1.456727548006696E-05
  -1.252238551514354E-05  -1.074823120751197E-05  -9.212583379981092E-06
  -7.886773348774330E-06  -6.745375077141574E-06  -5.765914823435994E-06
  -4.928607693265098E-06  -4.204367686197911E-06  -3.579203009972341E-06
  -3.040673795118798E-06  -2.577743497433934E-06  -2.180641673636795E-06
  -1.840737579937508E-06  -1.550424035443134E-06  -1.303010988990109E-06
  -1.092628228790163E-06  -9.141366788547823E-07  -7.630477341611808E-07
  -6.354500975736714E-07  -5.279435952757324E-07  -4.375794635318845E-07
  -3.618066176393586E-07  -2.984234335979880E-07  -2.455345939984633E-07
  -2.015125715917821E-07  -1.649633466646862E-07  -1.346959774359256E-07
  -1.096956659575065E-07  -8.909998522788267E-08  -7.217795619822617E-08
  -5.831168590008095E-08  -4.698029988814144E-08  -3.774592344388822E-08
  -3.024148641502610E-08  -2.416014608401865E-08  -1.924614099853950E-08
  -1.528690620810671E-08  -1.210629680250632E-08  -9.558782022472953E-09
  -7.524486509100399E-09  -5.904968485604949E-09  -4.619636844057950E-09
  -3.602720270351193E-09  -2.800711720323067E-09  -2.170220802088553E-09
  -1.676174972319519E-09  -1.290317969063125E-09  -9.899606344755832E-10
  -7.569452826073169E-10  -5.767900954194395E-10  -4.379847393507527E-10
  -3.314125386172988E-10  -2.498781718965216E-10  -1.877230258122182E-10
  -1.405130888344671E-10  -1.047866471775004E-10  -7.785109137958601E-11
  -5.761989677249014E-11  -4.248233818106998E-11  -3.119977104460983E-11
  -2.282338682179351E-11  -1.662925623307222E-11  -1.206723304934403E-11
  -8.720924595471531E-12  -6.276461317109623E-12  -4.498232834691414E-12
  -3.210116002124782E-12  -2.281013858774544E-12  -1.613763591176344E-12
  -1.136665783437881E-12  -7.970440772859587E-13  -5.563704544226387E-13
  -3.865922375326146E-13  -2.673772307966328E-13  -1.840570636770179E-13
  -1.260989791381938E-13  -8.597567182679480E-14  -5.833350841424656E-14
  -3.938332530852665E-14  -2.645643682139517E-14  -1.768265955678731E-14
  -1.175799621670010E-14  -7.777865524653537E-15  -5.118002110597220E-15
  -3.349844004184329E-15  -2.180738604265923E-15  -1.411913183213158E-15
  -9.090919338126971E-16  -5.820666884887023E-16  -3.705716033936044E-16
  -2.345713205308336E-16  -1.476215015696193E-16  -9.235584873855363E-17
  -5.743637444595771E-17  -3.550461489221249E-17  -2.181346728937027E-17
  -1.331904932252921E-17  -8.081583747531599E-18  -4.872592895217133E-18
  -2.918968567687522E-18  -1.737277340653977E-18  -1.027173250146424E-18
  -6.032772815224765E-19  -3.519268698311059E-19  -2.038980496733750E-19
  -1.173171336711155E-19  -6.702851687034339E-20  -3.802499462989190E-20
  -2.141663357109652E-20  -1.197474747489868E-20  -6.646220699965365E-21
  -3.661305894195274E-21  -2.001747284531732E-21  -1.086058105043946E-21
  -5.846898246463328E-22  -3.123088046612791E-22  -1.654954887085171E-22
  -8.699370200787132E-23  -4.535708354830902E-23  -2.345381354749014E-23
  -1.202673308677082E-23  -6.115077807521482E-24  -3.082691677060835E-24
  -1.540582909242473E-24  -7.631667671293384E-25  -3.747012334631546E-25
  -1.823196158707663E-25  -8.790528084433785E-26  -4.199328998234749E-26
  -1.987365047576676E-26  -9.316590662853151E-27  -4.325797328047872E-27
  -1.989081700911519E-27  -9.056559210037360E-28  -4.082669089205969E-28
  -1.821968991426731E-28  -8.048194389925420E-29  -3.518525801540271E-29
  -1.522198388546880E-29  -6.515874758842761E-30  -2.759352273260483E-30
  -1.155888083026387E-30  -4.788937527560368E-31  -1.962081696014547E-31
  -7.948561797564560E-32  -3.183404574885862E-32  -1.260272358825488E-32
  -4.931090531991949E-33  -1.906616866377203E-33  -7.283847905669261E-34
  -2.748967264272107E-34  -1.024761923662637E-34  -3.772712575740279E-35
    </PP_CHI.2>
  </PP_PSWFC>
  <PP_FULL_WFC number_of_wfc="4">
    <PP_AEWFC.1 index="1" label="2S" l="0">
   1.161824120379120E-03   1.176412988888043E-03   1.191185047847773E-03
   1.206142597556049E-03   1.221287788069157E-03   1.236622594339608E-03
   1.252149487465501E-03   1.267870851853691E-03   1.283789121015666E-03
   1.299906758789862E-03   1.316226259679394E-03   1.332750149233893E-03
   1.349480984433092E-03   1.366421354074949E-03   1.383573879168491E-03
   1.400941213331410E-03   1.418526043192462E-03   1.436331088798754E-03
   1.454359104027930E-03   1.472612877005358E-03   1.491095230526347E-03
   1.509809022483461E-03   1.528757146298994E-03   1.547942531362655E-03
   1.567368143474534E-03   1.587036985293401E-03   1.606952096790404E-03
   1.627116555708229E-03   1.647533478025782E-03   1.668206018428454E-03
   1.689137370784043E-03   1.710330768624382E-03   1.731789485632754E-03
   1.753516836137150E-03   1.775516175609440E-03   1.797790901170523E-03
   1.820344452101526E-03   1.843180310361116E-03   1.866302001109003E-03
   1.889713093235690E-03   1.913417199898561E-03   1.937417979064349E-03
   1.961719134058096E-03   1.986324414118629E-03   2.011237614960673E-03
   2.036462579343643E-03   2.062003197647198E-03   2.087863408453644E-03
   2.114047199137242E-03   2.140558606460517E-03   2.167401717177631E-03
   2.194580668644911E-03   2.222099649438601E-03   2.249962899979916E-03
   2.278174713167500E-03   2.306739435017332E-03   2.335661465310204E-03
   2.364945258246815E-03   2.394595323110595E-03   2.424616224938325E-03
   2.455012585198643E-03   2.485789082478527E-03   2.516950453177827E-03
   2.548501492211952E-03   2.580447053722787E-03   2.612792051797929E-03
   2.645541461198340E-03   2.678700318094496E-03   2.712273720811134E-03
   2.746266830580674E-03   2.780684872305432E-03   2.815533135328683E-03
   2.850816974214703E-03   2.886541809537862E-03   2.922713128680869E-03
   2.959336486642270E-03   2.996417506853284E-03   3.033961882004092E-03
   3.071975374879660E-03   3.110463819205203E-03   3.149433120501391E-03
   3.188889256949394E-03   3.228838280265868E-03   3.269286316587984E-03
   3.310239567368603E-03   3.351704310281694E-03   3.393686900138118E-03
   3.436193769811850E-03   3.479231431176783E-03   3.522806476054180E-03
   3.566925577170918E-03   3.611595489128601E-03   3.656823049383673E-03
   3.702615179238618E-03   3.748978884844374E-03   3.795921258214064E-03
   3.843449478248151E-03   3.891570811771133E-03   3.940292614579885E-03
   3.989622332503766E-03   4.039567502476595E-03   4.090135753620623E-03
   4.141334808342594E-03   4.193172483442030E-03   4.245656691231844E-03
   4.298795440671396E-03   4.352596838512109E-03   4.407069090455763E-03
   4.462220502325584E-03   4.518059481250237E-03   4.574594536860851E-03
   4.631834282501189E-03   4.689787436451073E-03   4.748462823163202E-03
   4.807869374513458E-03   4.868016131064836E-03   4.928912243345115E-03
   4.990566973138367E-03   5.052989694790468E-03   5.116189896528687E-03
   5.180177181795486E-03   5.244961270596676E-03   5.310552000864003E-03
   5.376959329832323E-03   5.444193335431466E-03   5.512264217692914E-03
   5.581182300171413E-03   5.650958031381636E-03   5.721601986250015E-03
   5.793124867581878E-03   5.865537507543975E-03   5.938850869162545E-03
   6.013076047837026E-03   6.088224272869534E-03   6.164306909010210E-03
   6.241335458018577E-03   6.319321560241006E-03   6.398276996204409E-03
   6.478213688226280E-03   6.559143702041189E-03   6.641079248443853E-03
   6.724032684948885E-03   6.808016517467336E-03   6.893043402000155E-03
   6.979126146348638E-03   7.066277711842026E-03   7.154511215082316E-03
   7.243839929706414E-03   7.334277288165712E-03   7.425836883523231E-03
   7.518532471268380E-03   7.612377971149473E-03   7.707387469024081E-03
   7.803575218727318E-03   7.900955643958147E-03   7.999543340183822E-03
   8.099353076562536E-03   8.200399797884358E-03   8.302698626530545E-03
   8.406264864451354E-03   8.511113995162354E-03   8.617261685759393E-03
   8.724723788952242E-03   8.833516345117023E-03   8.943655584367452E-03
   9.055157928645001E-03   9.168039993828012E-03   9.282318591859844E-03
   9.398010732896081E-03   9.515133627470871E-03   9.633704688682439E-03
   9.753741534397826E-03   9.875261989476858E-03   9.998284088015424E-03
   1.012282607560806E-02   1.024890641162989E-02   1.037654377153787E-02
   1.050575704919153E-02   1.063656535919296E-02   1.076898803924626E-02
   1.090304465253636E-02   1.103875499012726E-02   1.117613907337952E-02
   1.131521715638719E-02   1.145600972843406E-02   1.159853751646908E-02
   1.174282148760115E-02   1.188888285161302E-02   1.203674306349430E-02
   1.218642382599363E-02   1.233794709218975E-02   1.249133506808152E-02
   1.264661021519678E-02   1.280379525321991E-02   1.296291316263799E-02
   1.312398718740551E-02   1.328704083762737E-02   1.345209789226023E-02
   1.361918240183178E-02   1.378831869117812E-02   1.395953136219872E-02
   1.413284529662908E-02   1.430828565883070E-02   1.448587789859821E-02
   1.466564775398352E-02   1.484762125413662E-02   1.503182472216288E-02
   1.521828477799654E-02   1.540702834129020E-02   1.559808263431986E-02
   1.579147518490541E-02   1.598723382934607E-02   1.618538671537052E-02
   1.638596230510144E-02   1.658898937803393E-02   1.679449703402754E-02
   1.700251469631150E-02   1.721307211450265E-02   1.742619936763570E-02
   1.764192686720534E-02   1.786028536021970E-02   1.808130593226465E-02
   1.830502001057842E-02   1.853145936713605E-02   1.876065612174301E-02
   1.899264274513741E-02   1.922745206210022E-02   1.946511725457293E-02
   1.970567186478172E-02   1.994914979836776E-02   2.019558532752277E-02
   2.044501309412898E-02   2.069746811290295E-02   2.095298577454231E-02
   2.121160184887451E-02   2.147335248800693E-02   2.173827422947723E-02
   2.200640399940310E-02   2.227777911563054E-02   2.255243729087944E-02
   2.283041663588573E-02   2.311175566253871E-02   2.339649328701272E-02
   2.368466883289188E-02   2.397632203428670E-02   2.427149303894138E-02
   2.457022241133058E-02   2.487255113574429E-02   2.517852061935940E-02
   2.548817269529677E-02   2.580154962566213E-02   2.611869410456948E-02
   2.643964926114546E-02   2.676445866251300E-02   2.709316631675271E-02
   2.742581667584035E-02   2.776245463855855E-02   2.810312555338102E-02
   2.844787522132760E-02   2.879674989878788E-02   2.914979630031179E-02
   2.950706160136493E-02   2.986859344104668E-02   3.023443992476887E-02
   3.060464962689285E-02   3.097927159332272E-02   3.135835534405233E-02
   3.174195087566368E-02   3.213010866377425E-02   3.252287966543074E-02
   3.292031532144649E-02   3.332246755868016E-02   3.372938879225245E-02
   3.414113192769857E-02   3.455775036305304E-02   3.497929799086418E-02
   3.540582920013489E-02   3.583739887818683E-02   3.627406241244453E-02
   3.671587569213614E-02   3.716289510990746E-02   3.761517756334550E-02
   3.807278045640820E-02   3.853576170075632E-02   3.900417971698390E-02
   3.947809343574313E-02   3.995756229875978E-02   4.044264625973492E-02
   4.093340578512871E-02   4.142990185482191E-02   4.193219596265064E-02
   4.244035011680970E-02   4.295442684011979E-02   4.347448917015394E-02
   4.400060065921779E-02   4.453282537417916E-02   4.507122789614124E-02
   4.561587331995418E-02   4.616682725355993E-02   4.672415581716406E-02
   4.728792564222938E-02   4.785820387028526E-02   4.843505815154640E-02
   4.901855664333525E-02   4.960876800830134E-02   5.020576141243131E-02
   5.080960652284281E-02   5.142037350535555E-02   5.203813302183240E-02
   5.266295622728361E-02   5.329491476672654E-02   5.393408077179362E-02
   5.458052685708092E-02   5.523432611622920E-02   5.589555211772979E-02
   5.656427890044674E-02   5.724058096884718E-02   5.792453328793087E-02
   5.861621127785079E-02   5.931569080821499E-02   6.002304819206123E-02
   6.073836017949464E-02   6.146170395097882E-02   6.219315711027076E-02
   6.293279767698934E-02   6.368070407880727E-02   6.443695514325608E-02
   6.520163008913332E-02   6.597480851750108E-02   6.675657040226481E-02
   6.754699608032091E-02   6.834616624126155E-02   6.915416191662475E-02
   6.997106446867771E-02   7.079695557872109E-02   7.163191723490134E-02
   7.247603171951847E-02   7.332938159581616E-02   7.419204969424059E-02
   7.506411909815444E-02   7.594567312899220E-02   7.683679533084256E-02
   7.773756945444325E-02   7.864807944057393E-02   7.956840940283159E-02
   8.049864360977367E-02   8.143886646641295E-02   8.238916249504831E-02
   8.334961631541557E-02   8.432031262414130E-02   8.530133617348351E-02
   8.629277174934143E-02   8.729470414851764E-02   8.830721815521463E-02
   8.933039851674747E-02   9.036432991845494E-02   9.140909695778995E-02
   9.246478411757071E-02   9.353147573837314E-02   9.460925599004526E-02
   9.569820884232345E-02   9.679841803453068E-02   9.790996704433594E-02
   9.903293905555431E-02   1.001674169249665E-01   1.013134831481363E-01
   1.024712198242044E-01   1.036407086196367E-01   1.048220307309038E-01
   1.060152668460705E-01   1.072204971052711E-01   1.084378010600476E-01
   1.096672576315276E-01   1.109089450674173E-01   1.121629408977858E-01
   1.134293218896167E-01   1.147081640001009E-01   1.159995423286473E-01
   1.173035310675842E-01   1.186202034515277E-01   1.199496317053893E-01
   1.212918869909984E-01   1.226470393523117E-01   1.240151576591842E-01
   1.253963095496739E-01   1.267905613708537E-01   1.281979781181030E-01
   1.296186233728514E-01   1.310525592387472E-01   1.324998462762219E-01
   1.339605434354234E-01   1.354347079874899E-01   1.369223954541347E-01
   1.384236595355152E-01   1.399385520363562E-01   1.414671227902993E-01
   1.430094195824494E-01   1.445654880700898E-01   1.461353717015363E-01
   1.477191116331023E-01   1.493167466441453E-01   1.509283130501659E-01
   1.525538446139316E-01   1.541933724545946E-01   1.558469249547768E-01
   1.575145276655927E-01   1.591962032095822E-01   1.608919711815241E-01
   1.626018480471040E-01   1.643258470394080E-01   1.660639780532140E-01
   1.678162475370558E-01   1.695826583830307E-01   1.713632098143265E-01
   1.731578972704406E-01   1.749667122900666E-01   1.767896423916236E-01
   1.786266709514034E-01   1.804777770793126E-01   1.823429354921866E-01
   1.842221163846529E-01   1.861152852975231E-01   1.880224029836924E-01
   1.899434252715267E-01   1.918783029257197E-01   1.938269815056011E-01
   1.957894012208810E-01   1.977654967848123E-01   1.997551972647602E-01
   2.017584259301631E-01   2.037751000978754E-01   2.058051309748809E-01
   2.078484234983679E-01   2.099048761731606E-01   2.119743809065003E-01
   2.140568228401722E-01   2.161520801799786E-01   2.182600240225548E-01
   2.203805181795350E-01   2.225134189990674E-01   2.246585751846895E-01
   2.268158276115693E-01   2.289850091401261E-01   2.311659444270433E-01
   2.333584497336905E-01   2.355623327319746E-01   2.377773923076406E-01
   2.400034183610487E-01   2.422401916054559E-01   2.444874833628324E-01
   2.467450553572488E-01   2.490126595058721E-01   2.512900377076121E-01
   2.535769216294644E-01   2.558730324905990E-01   2.581780808442478E-01
   2.604917663574504E-01   2.628137775887174E-01   2.651437917636791E-01
   2.674814745487923E-01   2.698264798231766E-01   2.721784494486649E-01
   2.745370130381510E-01   2.769017877223274E-01   2.792723779149066E-01
   2.816483750764295E-01   2.840293574767688E-01   2.864148899564374E-01
   2.888045236868250E-01   2.911977959294839E-01   2.935942297945995E-01
   2.959933339987809E-01   2.983946026223164E-01   3.007975148660476E-01
   3.032015348080181E-01   3.056061111600635E-01   3.080106770245160E-01
   3.104146496512035E-01   3.128174301949322E-01   3.152184034736469E-01
   3.176169377274756E-01   3.200123843788684E-01   3.224040777940523E-01
   3.247913350460304E-01   3.271734556793645E-01   3.295497214769845E-01
   3.319193962292848E-01   3.342817255057680E-01   3.366359364295118E-01
   3.389812374547435E-01   3.413168181478118E-01   3.436418489718631E-01
   3.459554810755306E-01   3.482568460859614E-01   3.505450559065129E-01
   3.528192025194635E-01   3.550783577940874E-01   3.573215733004600E-01
   3.595478801293683E-01   3.617562887187088E-01   3.639457886867707E-01
   3.661153486728107E-01   3.682639161853353E-01   3.703904174585207E-01
   3.724937573172079E-01   3.745728190509245E-01   3.766264642973939E-01
   3.786535329360040E-01   3.806528429917189E-01   3.826231905499283E-01
   3.845633496827396E-01   3.864720723872291E-01   3.883480885361789E-01
   3.901901058418382E-01   3.919968098332582E-01   3.937668638477582E-01
   3.954989090370934E-01   3.971915643889058E-01   3.988434267640463E-01
   4.004530709503696E-01   4.020190497336122E-01   4.035398939859705E-01
   4.050141127730118E-01   4.064401934795523E-01   4.078166019551510E-01
   4.091417826798723E-01   4.104141589509826E-01   4.116321330912486E-01
   4.127940866795177E-01   4.138983808042622E-01   4.149433563407807E-01
   4.159273342527504E-01   4.168486159188350E-01   4.177054834850517E-01
   4.184962002436092E-01   4.192190110389318E-01   4.198721427015824E-01
   4.204538045108068E-01   4.209621886864173E-01   4.213954709107348E-01
   4.217518108813112E-01   4.220293528951485E-01   4.222262264651326E-01
   4.223405469693917E-01   4.223704163342901E-01   4.223139237517607E-01
   4.221691464316687E-01   4.219341503898996E-01   4.216069912728480E-01
   4.211857152189769E-01   4.206683597581051E-01   4.200529547490657E-01
   4.193375233563650E-01   4.185200830664557E-01   4.175986467442162E-01
   4.165712237302152E-01   4.154358209793095E-01   4.141904442411105E-01
   4.128330992828189E-01   4.113617931549084E-01   4.097745355001033E-01
   4.080693399060673E-01   4.062442253021842E-01   4.042972174007770E-01
   4.022263501830694E-01   4.000296674301589E-01   3.977052242992180E-01
   3.952510889451015E-01   3.926653441874819E-01   3.899460892235893E-01
   3.870914413865668E-01   3.840995379494077E-01   3.809685379743643E-01
   3.776966242076658E-01   3.742820050193078E-01   3.707229163876048E-01
   3.670176239281268E-01   3.631644249665564E-01   3.591616506549254E-01
   3.550076681306032E-01   3.507008827173193E-01   3.462397401674085E-01
   3.416227289443750E-01   3.368483825447647E-01   3.319152818582373E-01
   3.268220575646172E-01   3.215673925665944E-01   3.161500244566287E-01
   3.105687480164941E-01   3.048224177477766E-01   2.989099504315151E-01
   2.928303277150445E-01   2.865825987239713E-01   2.801658826970744E-01
   2.735793716417909E-01   2.668223330078036E-01   2.598941123761098E-01
   2.527941361608050E-01   2.455219143206731E-01   2.380770430775302E-01
   2.304592076381221E-01   2.226681849162334E-01   2.147038462515198E-01
   2.065661601214343E-01   1.982551948424747E-01   1.897711212568460E-01
   1.811142154004916E-01   1.722848611483218E-01   1.632835528323391E-01
   1.541108978282439E-01   1.447676191059888E-01   1.352545577396478E-01
   1.255726753718693E-01   1.157230566280968E-01   1.057069114756640E-01
   9.552557752280971E-02   8.518052225260399E-02   7.467334518674040E-02
   6.400577997412324E-02   5.317969639917088E-02   4.219710230475975E-02
   3.106014542475584E-02   1.977111512111563E-02   8.332444020590963E-03
  -3.253290453861199E-03  -1.498336466178208E-02  -2.685490743875056E-02
  -3.886489890937556E-02  -5.101016942424107E-02  -6.328739862517888E-02
  -7.569311464311319E-02  -8.822369343258916E-02  -1.008753582469647E-01
  -1.136441792581179E-01  -1.265260733244044E-01  -1.395168039104925E-01
  -1.526119811626166E-01  -1.658070621427230E-01  -1.790973512249402E-01
  -1.924780006577974E-01  -2.059440112956346E-01  -2.194902335027048E-01
  -2.331113682335640E-01  -2.468019682934721E-01  -2.605564397826953E-01
  -2.743690437287967E-01  -2.882338979112273E-01  -3.021449788827755E-01
  -3.160961241926945E-01  -3.300810348165858E-01  -3.440932777983768E-01
  -3.581262891099622E-01  -3.721733767342812E-01  -3.862277239777595E-01
  -4.002823930181396E-01  -4.143303286937470E-01  -4.283643625401806E-01
  -4.423772170802610E-01  -4.563615103728189E-01  -4.703097608255403E-01
  -4.842143922766183E-01  -4.980677393493765E-01  -5.118620530833404E-01
  -5.255895068444377E-01  -5.392422025161185E-01  -5.528121769722020E-01
  -5.662914088311978E-01  -5.796718254907220E-01  -5.929453104394408E-01
  -6.061037108427434E-01  -6.191388453970902E-01  -6.320425124466907E-01
  -6.448064983548819E-01  -6.574225861212816E-01  -6.698825642345186E-01
  -6.821782357490782E-01  -6.943014275735746E-01  -7.062439999565683E-01
  -7.179978561548938E-01  -7.295549522683606E-01  -7.409073072236396E-01
  -7.520470128891507E-01  -7.629662443018422E-01  -7.736572699858774E-01
  -7.841124623424465E-01  -7.943243080891976E-01  -8.042854187271158E-01
  -8.139885410121060E-01  -8.234265674080278E-01  -8.325925464975097E-01
  -8.414796933265261E-01  -8.500813996584621E-01  -8.583912441132162E-01
  -8.664030021667994E-01  -8.741106559868895E-01  -8.815084040798801E-01
  -8.885906707251350E-01  -8.953521151724200E-01  -9.017876405788255E-01
  -9.078924026619301E-01  -9.136618180464671E-01  -9.190915722823674E-01
  -9.241776275127250E-01  -9.289162297710043E-01  -9.333039158876485E-01
  -9.373375199871661E-01  -9.410141795577588E-01  -9.443313410766123E-01
  -9.472867651750938E-01  -9.498785313292735E-01  -9.521050420624250E-01
  -9.539650266474408E-01  -9.554575442984242E-01  -9.565819868420846E-01
  -9.573380808609584E-01  -9.577258893019011E-01  -9.577458125447376E-01
  -9.573985889274154E-01  -9.566852947254639E-01  -9.556073435850346E-01
  -9.541664854102453E-01  -9.523648047070055E-01  -9.502047183869212E-01
  -9.476889730362863E-01  -9.448206416565329E-01  -9.416031198838569E-01
  -9.380401216970231E-01  -9.341356746236069E-01  -9.298941144561215E-01
  -9.253200794906233E-01  -9.204185043014651E-01  -9.151946130668840E-01
  -9.096539124610596E-01  -9.038021841291559E-01  -8.976454767626670E-01
  -8.911900977931215E-01  -8.844426047231255E-01  -8.774097961120841E-01
  -8.700986997600877E-01  -8.625165559463133E-01  -8.546708123737164E-01
  -8.465691266406052E-01  -8.382193439567606E-01  -8.296294912691513E-01
  -8.208077653472876E-01  -8.117625219487099E-01  -8.025022646764390E-01
  -7.930356337120477E-01  -7.833713944364008E-01  -7.735184259581885E-01
  -7.634857095705231E-01  -7.532823171554777E-01  -7.429173995560650E-01
  -7.324001749347377E-01  -7.217399171370446E-01  -7.109459440816874E-01
  -7.000276061805683E-01  -6.889942748313447E-01  -6.778553309765483E-01
  -6.666201537552062E-01  -6.552981092608171E-01  -6.438985394206758E-01
  -6.324307510109970E-01  -6.209040048217519E-01  -6.093275049846030E-01
  -5.977103884768131E-01  -5.860617148134794E-01  -5.743904559399714E-01
  -5.627054863359878E-01  -5.510155733421817E-01  -5.393293677198732E-01
  -5.276553944539562E-01  -5.160020438087113E-01  -5.043775626458646E-01
  -4.927900460138783E-01  -4.812474290171187E-01  -4.697574789732352E-01
  -4.583277878667726E-01  -4.469657651067575E-01  -4.356786305957097E-01
  -4.244734081172757E-01  -4.133569190494033E-01  -4.023357764097277E-01
  -3.914163792395789E-01  -3.806049073327590E-01  -3.699073163149741E-01
  -3.593293330795340E-01  -3.488764515846448E-01  -3.385539290173253E-01
  -3.283667823286561E-01  -3.183197851447417E-01  -3.084174650573973E-01
  -2.986641012981935E-01  -2.890637227990788E-01  -2.796201066423522E-01
  -2.703367769022889E-01  -2.612170038802126E-01  -2.522638037342635E-01
  -2.434799385045388E-01  -2.348679165336633E-01  -2.264299932822071E-01
  -2.181681725376763E-01  -2.100842080150913E-01  -2.021796053464118E-01
  -1.944556244552900E-01  -1.869132823128166E-01  -1.795533560690922E-01
  -1.723763865545899E-01  -1.653826821443948E-01  -1.585723229775053E-01
  -1.519451655224704E-01  -1.455008474797152E-01  -1.392387930099819E-01
  -1.331582182773930E-01  -1.272581372947222E-01  -1.215373680575566E-01
  -1.159945389531439E-01  -1.106280954288523E-01  -1.054363069043363E-01
  -1.004172739106958E-01  -9.556893543915382E-02  -9.088907648106387E-02
  -8.637533574038557E-02  -8.202521349916302E-02  -7.783607961598751E-02
  -7.380518163694580E-02  -6.992965299814249E-02  -6.620652129854881E-02
  -6.263271662167146E-02  -5.920507988435956E-02  -5.592037119097643E-02
  -5.277527817115912E-02  -4.976642427947359E-02  -4.689037703544961E-02
  -4.414365618274516E-02  -4.152274174654898E-02  -3.902408196877705E-02
  -3.664410110115743E-02  -3.437920703692263E-02  -3.222579876253966E-02
  -3.018027361170055E-02  -2.823903430466736E-02  -2.639849575701225E-02
  -2.465509164280772E-02  -2.300528069840309E-02  -2.144555275406118E-02
  -1.997243448192080E-02  -1.858249484998712E-02  -1.727235027312819E-02
  -1.603866945336308E-02  -1.487817790305862E-02  -1.378766214599955E-02
  -1.276397359265322E-02  -1.180403208730682E-02  -1.090482912610441E-02
  -1.006343074634581E-02  -9.276980088719794E-03  -8.542699635425591E-03
  -7.857893128378745E-03  -7.219947172895631E-03  -6.626332533397086E-03
  -6.074605128760084E-03  -5.562406735971358E-03  -5.087465411692960E-03
  -4.647595642232405E-03  -4.240698233215034E-03  -3.864759950980225E-03
  -3.517852928363117E-03  -3.198133848077487E-03  -2.903842917381892E-03
  -2.633302648089216E-03  -2.384916456269392E-03  -2.157167096196645E-03
  -1.948614943207527E-03  -1.757896140165921E-03  -1.583720622178649E-03
  -1.424870034073273E-03  -1.280195554941688E-03  -1.148615643773133E-03
  -1.029113719852936E-03  -9.207357911932752E-04  -8.225880437949105E-04
  -7.338344040195642E-04  -6.536940857871667E-04  -5.814391337063861E-04
  -5.163919726067172E-04  -4.579229732719268E-04  -4.054480434838662E-04
  -3.584262527784951E-04  -3.163574985982613E-04  -2.787802208023803E-04
  -2.452691707745225E-04  -2.154332406510985E-04  -1.889133574876317E-04
  -1.653804464901597E-04  -1.445334667674079E-04  -1.260975224114188E-04
  -1.098220510928112E-04  -9.547909176484614E-05  -8.286163251056777E-05
  -7.178203904156788E-05  -6.207056386711326E-05  -5.357393569973928E-05
  -4.615402824882696E-05  -3.968660717761535E-05  -3.406015366165638E-05
  -2.917476268765075E-05  -2.494111397022482E-05  -2.127951314017404E-05
  -1.811900066787398E-05  -1.539652583330338E-05  -1.305618293074254E-05
  -1.104850680499874E-05  -9.329824756782453E-06  -7.861661817805338E-06
  -6.610196386208269E-06  -5.545763228470206E-06  -4.642400867621797E-06
  -3.877440641945205E-06  -3.231132703797863E-06  -2.686319202625810E-06
  -2.228095559076983E-06  -1.843615999205140E-06  -1.521799242674051E-06
  -1.253074885413946E-06  -1.029215151200937E-06  -8.431715541610183E-07
  -6.889201917257079E-07  -5.613248525881024E-07  -4.560161626890369E-07
  -3.692851114776920E-07  -2.979894144219271E-07  -2.394712587499441E-07
  -1.914851611150250E-07  -1.521341854471188E-07  -1.198160951388593E-07
  -9.316539151027600E-08  -7.113875746369345E-08  -5.218505170927728E-08
   0.000000000000000E+00   0.000000000000000E+00   0.000000000000000E+00
   0.000000000000000E+00   0.000000000000000E+00   0.000000000000000E+00
   0.000000000000000E+00   0.000000000000000E+00   0.000000000000000E+00
   0.000000000000000E+00   0.000000000000000E+00   0.000000000000000E+00
   0.000000000000000E+00   0.000000000000000E+00   0.000000000000000E+00
   0.000000000000000E+00   0.000000000000000E+00   0.000000000000000E+00
   0.000000000000000E+00   0.000000000000000E+00   0.000000000000000E+00
   0.000000000000000E+00   0.000000000000000E+00   0.000000000000000E+00
   0.000000000000000E+00   0.000000000000000E+00   0.000000000000000E+00
   0.000000000000000E+00   0.000000000000000E+00   0.000000000000000E+00
   0.000000000000000E+00   0.000000000000000E+00   0.000000000000000E+00
   0.000000000000000E+00   0.000000000000000E+00   0.000000000000000E+00
   0.000000000000000E+00   0.000000000000000E+00   0.000000000000000E+00
   0.000000000000000E+00   0.000000000000000E+00   0.000000000000000E+00
   0.000000000000000E+00   0.000000000000000E+00   0.000000000000000E+00
   0.000000000000000E+00   0.000000000000000E+00   0.000000000000000E+00
   0.000000000000000E+00   0.000000000000000E+00   0.000000000000000E+00
   0.000000000000000E+00   0.000000000000000E+00   0.000000000000000E+00
   0.000000000000000E+00   0.000000000000000E+00   0.000000000000000E+00
   0.000000000000000E+00   0.000000000000000E+00   0.000000000000000E+00
   0.000000000000000E+00   0.000000000000000E+00   0.000000000000000E+00
   0.000000000000000E+00   0.000000000000000E+00   0.000000000000000E+00
   0.000000000000000E+00   0.000000000000000E+00   0.000000000000000E+00
   0.000000000000000E+00   0.000000000000000E+00   0.000000000000000E+00
   0.000000000000000E+00   0.000000000000000E+00   0.000000000000000E+00
   0.000000000000000E+00   0.000000000000000E+00   0.000000000000000E+00
   0.000000000000000E+00   0.000000000000000E+00   0.000000000000000E+00
   0.000000000000000E+00   0.000000000000000E+00   0.000000000000000E+00
   0.000000000000000E+00   0.000000000000000E+00   0.000000000000000E+00
   0.000000000000000E+00   0.000000000000000E+00   0.000000000000000E+00
   0.000000000000000E+00   0.000000000000000E+00   0.000000000000000E+00
   0.000000000000000E+00   0.000000000000000E+00   0.000000000000000E+00
   0.000000000000000E+00   0.000000000000000E+00   0.000000000000000E+00
   0.000000000000000E+00   0.000000000000000E+00   0.000000000000000E+00
   0.000000000000000E+00   0.000000000000000E+00   0.000000000000000E+00
   0.000000000000000E+00   0.000000000000000E+00   0.000000000000000E+00
   0.000000000000000E+00   0.000000000000000E+00   0.000000000000000E+00
   0.000000000000000E+00   0.000000000000000E+00   0.000000000000000E+00
   0.000000000000000E+00   0.000000000000000E+00   0.000000000000000E+00
   0.000000000000000E+00   0.000000000000000E+00   0.000000000000000E+00
   0.000000000000000E+00   0.000000000000000E+00   0.000000000000000E+00
   0.000000000000000E+00   0.000000000000000E+00   0.000000000000000E+00
   0.000000000000000E+00   0.000000000000000E+00   0.000000000000000E+00
   0.000000000000000E+00   0.000000000000000E+00   0.000000000000000E+00
   0.000000000000000E+00   0.000000000000000E+00   0.000000000000000E+00
   0.000000000000000E+00   0.000000000000000E+00   0.000000000000000E+00
   0.000000000000000E+00   0.000000000000000E+00   0.000000000000000E+00
   0.000000000000000E+00   0.000000000000000E+00   0.000000000000000E+00
   0.000000000000000E+00   0.000000000000000E+00   0.000000000000000E+00
   0.000000000000000E+00   0.000000000000000E+00   0.000000000000000E+00
   0.000000000000000E+00   0.000000000000000E+00   0.000000000000000E+00
   0.000000000000000E+00   0.000000000000000E+00   0.000000000000000E+00
    </PP_AEWFC.1>
    <PP_AEWFC.2 index="2" label="2S" l="0">
   9.237603108861330E-04   9.353598443033615E-04   9.471050314945310E-04
   9.589977014144011E-04   9.710395635506215E-04   9.832321881542458E-04
   9.955775399874127E-04   1.008077514877423E-03   1.020734047695539E-03
   1.033549097425792E-03   1.046524647433499E-03   1.059662705768867E-03
   1.072965305471970E-03   1.086434504881353E-03   1.100072387946367E-03
   1.113881064543303E-03   1.127862670795334E-03   1.142019369396342E-03
   1.156353349938650E-03   1.170866829244715E-03   1.185562051702838E-03
   1.200441289606912E-03   1.215506843500281E-03   1.230761042523738E-03
   1.246206244767724E-03   1.261844837628768E-03   1.277679238170217E-03
   1.293711893487307E-03   1.309945281076632E-03   1.326381909210046E-03
   1.343024317313059E-03   1.359875076347782E-03   1.376936789200464E-03
   1.394212091073673E-03   1.411703649883184E-03   1.429414166659621E-03
   1.447346375954902E-03   1.465503046253553E-03   1.483886980388935E-03
   1.502501015964446E-03   1.521348025779759E-03   1.540430918262131E-03
   1.559752637902874E-03   1.579316165699012E-03   1.599124519600209E-03
   1.619180754961004E-03   1.639487964998439E-03   1.660049281255108E-03
   1.680867874067720E-03   1.701946953041209E-03   1.723289767528475E-03
   1.744899607115802E-03   1.766779802114031E-03   1.788933724055527E-03
   1.811364786197043E-03   1.834076444028501E-03   1.857072195787788E-03
   1.880355582981620E-03   1.903930190912542E-03   1.927799649212129E-03
   1.951967632380454E-03   1.976437860331906E-03   2.001214098947403E-03
   2.026300160633085E-03   2.051699904885555E-03   2.077417238863738E-03
   2.103456117967421E-03   2.129820546422556E-03   2.156514577873401E-03
   2.183542315981551E-03   2.210907915031959E-03   2.238615580546006E-03
   2.266669569901690E-03   2.295074192961027E-03   2.323833812704720E-03
   2.352952845874188E-03   2.382435763621021E-03   2.412287092163946E-03
   2.442511413453371E-03   2.473113365843612E-03   2.504097644772837E-03
   2.535469003450857E-03   2.567232253554809E-03   2.599392265932825E-03
   2.631953971315768E-03   2.664922361037117E-03   2.698302487761085E-03
   2.732099466219040E-03   2.766318473954338E-03   2.800964752075628E-03
   2.836043606018725E-03   2.871560406317135E-03   2.907520589381321E-03
   2.943929658286784E-03   2.980793183571060E-03   3.018116804039716E-03
   3.055906227581423E-03   3.094167231992211E-03   3.132905665808981E-03
   3.172127449152368E-03   3.211838574579044E-03   3.252045107943554E-03
   3.292753189269771E-03   3.333969033632060E-03   3.375698932046247E-03
   3.417949252370483E-03   3.460726440216090E-03   3.504037019868492E-03
   3.547887595218306E-03   3.592284850702705E-03   3.637235552257139E-03
   3.682746548277497E-03   3.728824770592822E-03   3.775477235448659E-03
   3.822711044501136E-03   3.870533385821873E-03   3.918951534913808E-03
   3.967972855738047E-03   4.017604801751814E-03   4.067854916957616E-03
   4.118730836963697E-03   4.170240290055909E-03   4.222391098281045E-03
   4.275191178541787E-03   4.328648543703311E-03   4.382771303711688E-03
   4.437567666724145E-03   4.493045940251294E-03   4.549214532311422E-03
   4.606081952596945E-03   4.663656813653100E-03   4.721947832068986E-03
   4.780963829681044E-03   4.840713734789072E-03   4.901206583384856E-03
   4.962451520393520E-03   5.024457800927695E-03   5.087234791554574E-03
   5.150791971575973E-03   5.215138934321466E-03   5.280285388454692E-03
   5.346241159292933E-03   5.413016190140032E-03   5.480620543632752E-03
   5.549064403100662E-03   5.618358073939632E-03   5.688511984999016E-03
   5.759536689982627E-03   5.831442868863566E-03   5.904241329312987E-03
   5.977943008142898E-03   6.052558972763055E-03   6.128100422652038E-03
   6.204578690842582E-03   6.282005245421237E-03   6.360391691042432E-03
   6.439749770457011E-03   6.520091366055311E-03   6.601428501424850E-03
   6.683773342922690E-03   6.767138201262549E-03   6.851535533116693E-03
   6.936977942732703E-03   7.023478183565156E-03   7.111049159922262E-03
   7.199703928627544E-03   7.289455700696563E-03   7.380317843028780E-03
   7.472303880114569E-03   7.565427495757418E-03   7.659702534811383E-03
   7.755143004933805E-03   7.851763078353323E-03   7.949577093653208E-03
   8.048599557570072E-03   8.148845146807904E-03   8.250328709867529E-03
   8.353065268891431E-03   8.457070021524002E-03   8.562358342787174E-03
   8.668945786971454E-03   8.776848089542370E-03   8.886081169062275E-03
   8.996661129127535E-03   9.108604260321040E-03   9.221927042180052E-03
   9.336646145179303E-03   9.452778432729365E-03   9.570340963190186E-03
   9.689350991899791E-03   9.809825973218054E-03   9.931783562585490E-03
   1.005524161859700E-02   1.018021820509049E-02   1.030673159325024E-02
   1.043480026372498E-02   1.056444290876057E-02   1.069567843434713E-02
   1.082852596238050E-02   1.096300483283797E-02   1.109913460596812E-02
   1.123693506449450E-02   1.137642621583322E-02   1.151762829432407E-02
   1.166056176347519E-02   1.180524731822087E-02   1.195170588719254E-02
   1.209995863500254E-02   1.225002696454055E-02   1.240193251928245E-02
   1.255569718561131E-02   1.271134309515032E-02   1.286889262710731E-02
   1.302836841063072E-02   1.318979332717650E-02   1.335319051288590E-02
   1.351858336097360E-02   1.368599552412595E-02   1.385545091690895E-02
   1.402697371818562E-02   1.420058837354230E-02   1.437631959772355E-02
   1.455419237707521E-02   1.473423197199519E-02   1.491646391939144E-02
   1.510091403514686E-02   1.528760841659035E-02   1.547657344497369E-02
   1.566783578795373E-02   1.586142240207917E-02   1.605736053528149E-02
   1.625567772936945E-02   1.645640182252639E-02   1.665956095180984E-02
   1.686518355565271E-02   1.707329837636537E-02   1.728393446263785E-02
   1.749712117204152E-02   1.771288817352946E-02   1.793126544993462E-02
   1.815228330046503E-02   1.837597234319523E-02   1.860236351755299E-02
   1.883148808680040E-02   1.906337764050838E-02   1.929806409702371E-02
   1.953557970592750E-02   1.977595705048405E-02   2.001922905007903E-02
   2.026542896264599E-02   2.051459038707983E-02   2.076674726563620E-02
   2.102193388631564E-02   2.128018488523100E-02   2.154153524895708E-02
   2.180602031686098E-02   2.207367578341187E-02   2.234453770046863E-02
   2.261864247954407E-02   2.289602689404405E-02   2.317672808148007E-02
   2.346078354565354E-02   2.374823115881030E-02   2.403910916376350E-02
   2.433345617598317E-02   2.463131118565065E-02   2.493271355967599E-02
   2.523770304367644E-02   2.554631976391405E-02   2.585860422919031E-02
   2.617459733269575E-02   2.649434035381247E-02   2.681787495986713E-02
   2.714524320783242E-02   2.747648754597439E-02   2.781165081544355E-02
   2.815077625180694E-02   2.849390748651884E-02   2.884108854832750E-02
   2.919236386461507E-02   2.954777826266818E-02   2.990737697087608E-02
   3.027120561985372E-02   3.063931024348655E-02   3.101173727989408E-02
   3.138853357230909E-02   3.176974636986910E-02   3.215542332831696E-02
   3.254561251060709E-02   3.294036238741377E-02   3.333972183753810E-02
   3.374374014820973E-02   3.415246701527980E-02   3.456595254330103E-02
   3.498424724549103E-02   3.540740204357497E-02   3.583546826750302E-02
   3.626849765503872E-02   3.670654235121356E-02   3.714965490764345E-02
   3.759788828170239E-02   3.805129583554867E-02   3.850993133499868E-02
   3.897384894824343E-02   3.944310324440271E-02   3.991774919191162E-02
   4.039784215673414E-02   4.088343790039838E-02   4.137459257784775E-02
   4.187136273510255E-02   4.237380530672582E-02   4.288197761308773E-02
   4.339593735742223E-02   4.391574262266964E-02   4.444145186809891E-02
   4.497312392570274E-02   4.551081799635903E-02   4.605459364575167E-02
   4.660451080004363E-02   4.716062974129522E-02   4.772301110262003E-02
   4.829171586307116E-02   4.886680534224986E-02   4.944834119462900E-02
   5.003638540358295E-02   5.063100027511598E-02   5.123224843128058E-02
   5.184019280327730E-02   5.245489662422702E-02   5.307642342160716E-02
   5.370483700934228E-02   5.434020147953997E-02   5.498258119386235E-02
   5.563204077452360E-02   5.628864509490349E-02   5.695245926976675E-02
   5.762354864507808E-02   5.830197878740197E-02   5.898781547287704E-02
   5.968112467575327E-02   6.038197255648159E-02   6.109042544934384E-02
   6.180654984961197E-02   6.253041240022407E-02   6.326207987796575E-02
   6.400161917914392E-02   6.474909730474093E-02   6.550458134503589E-02
   6.626813846368047E-02   6.703983588121559E-02   6.781974085801573E-02
   6.860792067664707E-02   6.940444262362531E-02   7.020937397055903E-02
   7.102278195466412E-02   7.184473375863455E-02   7.267529648985437E-02
   7.351453715893558E-02   7.436252265756688E-02   7.521931973565689E-02
   7.608499497775621E-02   7.695961477874204E-02   7.784324531874845E-02
   7.873595253732614E-02   7.963780210681402E-02   8.054885940490573E-02
   8.146918948639324E-02   8.239885705406991E-02   8.333792642877474E-02
   8.428646151855984E-02   8.524452578696191E-02   8.621218222035951E-02
   8.718949329439653E-02   8.817652093945300E-02   8.917332650514308E-02
   9.017997072382083E-02   9.119651367307359E-02   9.222301473718245E-02
   9.325953256752938E-02   9.430612504193045E-02   9.536284922287379E-02
   9.642976131464111E-02   9.750691661929153E-02   9.859436949148608E-02
   9.969217329213065E-02   1.008003803408157E-01   1.019190418670304E-01
   1.030482079601288E-01   1.041879275180249E-01   1.053382481945954E-01
   1.064992163457648E-01   1.076708769742525E-01   1.088532736729563E-01
   1.100464485669510E-01   1.112504422540767E-01   1.124652937440958E-01
   1.136910403963925E-01   1.149277178561924E-01   1.161753599892795E-01
   1.174339988151848E-01   1.187036644388240E-01   1.199843849805603E-01
   1.212761865046690E-01   1.225790929461797E-01   1.238931260360715E-01
   1.252183052248007E-01   1.265546476041339E-01   1.279021678272659E-01
   1.292608780271979E-01   1.306307877333533E-01   1.320119037864090E-01
   1.334042302513184E-01   1.348077683285051E-01   1.362225162632051E-01
   1.376484692529345E-01   1.390856193530644E-01   1.405339553804783E-01
   1.419934628152955E-01   1.434641237006373E-01   1.449459165404192E-01
   1.464388161951480E-01   1.479427937757072E-01   1.494578165351124E-01
   1.509838477582200E-01   1.525208466493722E-01   1.540687682179647E-01
   1.556275631619204E-01   1.571971777490572E-01   1.587775536963360E-01
   1.603686280469779E-01   1.619703330454393E-01   1.635825960102367E-01
   1.652053392046105E-01   1.668384797050231E-01   1.684819292674844E-01
   1.701355941916999E-01   1.717993751830395E-01   1.734731672123246E-01
   1.751568593734341E-01   1.768503347387315E-01   1.785534702123157E-01
   1.802661363811019E-01   1.819881973637399E-01   1.837195106573777E-01
   1.854599269822844E-01   1.872092901243435E-01   1.889674367754338E-01
   1.907341963717169E-01   1.925093909298494E-01   1.942928348811461E-01
   1.960843349037182E-01   1.978836897526163E-01   1.996906900880085E-01
   2.015051183014302E-01   2.033267483401406E-01   2.051553455296298E-01
   2.069906663943178E-01   2.088324584764954E-01   2.106804601535562E-01
   2.125344004535763E-01   2.143939988692991E-01   2.162589651705881E-01
   2.181289992154153E-01   2.200037907594539E-01   2.218830192643529E-01
   2.237663537047713E-01   2.256534523742570E-01   2.275439626900589E-01
   2.294375209969660E-01   2.313337523702730E-01   2.332322704179740E-01
   2.351326770822967E-01   2.370345624406887E-01   2.389375045063780E-01
   2.408410690286324E-01   2.427448092928502E-01   2.446482659206196E-01
   2.465509666698905E-01   2.484524262354094E-01   2.503521460495734E-01
   2.522496140838670E-01   2.541443046510518E-01   2.560356782082848E-01
   2.579231811613513E-01   2.598062456702012E-01   2.616842894559888E-01
   2.635567156098217E-01   2.654229124034315E-01   2.672822531019886E-01
   2.691340957792903E-01   2.709777831355587E-01   2.728126423180947E-01
   2.746379847450414E-01   2.764531059325190E-01   2.782572853254034E-01
   2.800497861320252E-01   2.818298551630808E-01   2.835967226750498E-01
   2.853496022184276E-01   2.870876904910867E-01   2.888101671970924E-01
   2.905161949113061E-01   2.922049189501220E-01   2.938754672486857E-01
   2.955269502449632E-01   2.971584607710269E-01   2.987690739519446E-01
   3.003578471126611E-01   3.019238196932745E-01   3.034660131731198E-01
   3.049834310040783E-01   3.064750585535477E-01   3.079398630575105E-01
   3.093767935841539E-01   3.107847810085016E-01   3.121627379985275E-01
   3.135095590132329E-01   3.148241203131760E-01   3.161052799839559E-01
   3.173518779731577E-01   3.185627361412805E-01   3.197366583271748E-01
   3.208724304285276E-01   3.219688204979422E-01   3.230245788551678E-01
   3.240384382160436E-01   3.250091138387299E-01   3.259353036878080E-01
   3.268156886168383E-01   3.276489325699719E-01   3.284336828032227E-01
   3.291685701260098E-01   3.298522091635894E-01   3.304831986410017E-01
   3.310601216891622E-01   3.315815461737353E-01   3.320460250474326E-01
   3.324520967263801E-01   3.327982854912067E-01   3.330831019135087E-01
   3.333050433083455E-01   3.334625942134279E-01   3.335542268956604E-01
   3.335784018856979E-01   3.335335685411835E-01   3.334181656393247E-01
   3.332306219994737E-01   3.329693571363669E-01   3.326327819446821E-01
   3.322192994155631E-01   3.317273053857591E-01   3.311551893200191E-01
   3.305013351273752E-01   3.297641220119373E-01   3.289419253588174E-01
   3.280331176557841E-01   3.270360694512420E-01   3.259491503491105E-01
   3.247707300411679E-01   3.234991793774041E-01   3.221328714749093E-01
   3.206701828658072E-01   3.191094946847158E-01   3.174491938961985E-01
   3.156876745626395E-01   3.138233391529529E-01   3.118545998925011E-01
   3.097798801545715E-01   3.075976158937194E-01   3.053062571212545E-01
   3.029042694231068E-01   3.003901355202654E-01   2.977623568719416E-01
   2.950194553215590E-01   2.921599747856265E-01   2.891824829854947E-01
   2.860855732219436E-01   2.828678661924899E-01   2.795280118512433E-01
   2.760646913110723E-01   2.724766187877805E-01   2.687625435859150E-01
   2.649212521257634E-01   2.609515700110109E-01   2.568523641364575E-01
   2.526225448351032E-01   2.482610680638297E-01   2.437669376268130E-01
   2.391392074357088E-01   2.343769838055586E-01   2.294794277852617E-01
   2.244457575213594E-01   2.192752506537686E-01   2.139672467419984E-01
   2.085211497202691E-01   2.029364303798412E-01   1.972126288767490E-01
   1.913493572630107E-01   1.853463020392764E-01   1.792032267267455E-01
   1.729199744560737E-01   1.664964705708594E-01   1.599327252431837E-01
   1.532288360985522E-01   1.463849908474694E-01   1.394014699207529E-01
   1.322786491055799E-01   1.250170021791416E-01   1.176171035366687E-01
   1.100796308104835E-01   1.024053674766270E-01   9.459520544551525E-02
   8.665014763297912E-02   7.857131050796153E-02   7.035992661306072E-02
   6.201734705403988E-02   5.354504395435844E-02   4.494461287072605E-02
   3.621777516563629E-02   2.736638033280125E-02   1.839240827138453E-02
   9.297971504915634E-03   8.531734076520194E-05  -9.243170033932794E-03
  -1.868496752400954E-02  -2.823741116971264E-02  -3.789769426591876E-02
  -4.766286556110565E-02  -5.752982754003575E-02  -6.749533479405473E-02
  -7.755599248285767E-02  -8.770825489152687E-02  -9.794842408660109E-02
  -1.082726486748987E-01  -1.186769226687914E-01  -1.291570844616132E-01
  -1.397088159168967E-01  -1.503276415751542E-01  -1.610089279819778E-01
  -1.717478831413081E-01  -1.825395560978359E-01  -1.933788366526405E-01
  -2.042604552163453E-01  -2.151789828042761E-01  -2.261288311783475E-01
  -2.371042531406675E-01  -2.480993429841384E-01  -2.591080371056410E-01
  -2.701241147877062E-01  -2.811411991548957E-01  -2.921527583114276E-01
  -3.031521066668769E-01  -3.141324064570428E-01  -3.250866694673021E-01
  -3.360077589659396E-01  -3.468883918550565E-01  -3.577211410466983E-01
  -3.684984380718046E-01  -3.792125759294547E-01  -3.898557121836702E-01
  -4.004198723147253E-01  -4.108969533315167E-01  -4.212787276510498E-01
  -4.315568472505241E-01  -4.417228480968367E-01  -4.517681548575916E-01
  -4.616840858969042E-01  -4.714618585584302E-01  -4.810925947371541E-01
  -4.905673267405264E-01  -4.998770034385783E-01  -5.090124967016627E-01
  -5.179646081234779E-01  -5.267240760260484E-01  -5.352815827423588E-01
  -5.436277621713754E-01  -5.517532075992601E-01  -5.596484797796660E-01
  -5.673041152651466E-01  -5.747106349808638E-01  -5.818585530310065E-01
  -5.887383857275860E-01  -5.953406608305829E-01  -6.016559269877956E-01
  -6.076747633621500E-01  -6.133877894337249E-01  -6.187856749632783E-01
  -6.238591501036775E-01  -6.285990156453000E-01  -6.329961533812165E-01
  -6.370415365777800E-01  -6.407262405361148E-01  -6.440414532299676E-01
  -6.469784860053925E-01  -6.495287843278557E-01  -6.516839385625141E-01
  -6.534356947736756E-01  -6.547759655297756E-01  -6.556968407006052E-01
  -6.561905982340100E-01  -6.562497148998175E-01  -6.558668769893908E-01
  -6.550349909598872E-01  -6.537471940130720E-01  -6.519968645993665E-01
  -6.497776328386967E-01  -6.470833908506701E-01  -6.439083029876066E-01
  -6.402468159650160E-01  -6.360936688852137E-01  -6.314439031509155E-01
  -6.262928722668329E-01  -6.206362515284992E-01  -6.144700475987882E-01
  -6.077906079738399E-01  -6.005946303413570E-01  -5.928791718354977E-01
  -5.846416581938377E-01  -5.758798928231081E-01  -5.665920657816261E-01
  -5.567767626875151E-01  -5.464329735629415E-01  -5.355601016256905E-01
  -5.241579720404197E-01  -5.122268406428983E-01  -4.997674026514123E-01
  -4.867808013803182E-01  -4.732686369714191E-01  -4.592329751594394E-01
  -4.446763560883505E-01  -4.296018031956554E-01  -4.140128321819759E-01
  -3.979134600833637E-01  -3.813082144637029E-01  -3.642021427443499E-01
  -3.466008216877801E-01  -3.285103670517923E-01  -3.099374434273157E-01
  -2.908892734430951E-01  -2.713736457238260E-01  -2.513989273435060E-01
  -2.309740789874352E-01  -2.101086617648072E-01  -1.888128501595712E-01
  -1.670974431533888E-01  -1.449738760568428E-01  -1.224542325416108E-01
  -9.955125692899729E-02  -7.627836672453242E-02  -5.264966538808469E-02
  -2.867995532541648E-02  -4.384751083173270E-03   2.021970727487562E-02
   4.511644063695822E-02   7.028771718908600E-02   9.571503867375881E-02
   1.213791266030537E-01   1.472599084730364E-01   1.733365040321690E-01
   1.995872116623847E-01   2.259894949377562E-01   2.525199694321991E-01
   2.791543898544281E-01   3.058676375954009E-01   3.326337087807703E-01
   3.594257029283775E-01   3.862158123185830E-01   4.129753121932182E-01
   4.396745519071693E-01   4.662829471650384E-01   4.927689734839563E-01
   5.191001610324646E-01   5.452430910043883E-01   5.711633936958007E-01
   5.968257484624960E-01   6.221938857448257E-01   6.472305913563028E-01
   6.718977132419797E-01   6.961561709222717E-01   7.199659678475532E-01
   7.432862068984929E-01   7.660751092766525E-01   7.882900370393116E-01
   8.098875195417581E-01   8.308232840593075E-01   8.510522908700626E-01
   8.705287730877928E-01   8.892062815422319E-01   9.070377350114855E-01
   9.239754761179848E-01   9.399713332054536E-01   9.549766885195063E-01
   9.689425530186978E-01   9.818196481459004E-01   9.935584948917063E-01
   1.004109510481923E+00   1.013423113020011E+00   1.021449834412309E+00
   1.028140441898860E+00   1.033446068505458E+00   1.037318352722846E+00
   1.039709587706599E+00   1.040572880275917E+00   1.039862319970907E+00
   1.037533158405768E+00   1.033541999129235E+00   1.027846998173344E+00
   1.020408075436710E+00   1.011187137008648E+00   1.000148308495313E+00
   9.872581793580297E-01   9.724860582168878E-01   9.558042390088787E-01
   9.371882778190344E-01   9.166172801246679E-01   8.940741981064838E-01
   8.695461375855355E-01   8.430246740413394E-01   8.145061770534137E-01
   7.839921423856986E-01   7.514895308003088E-01   7.170111125434688E-01
   6.805758162919756E-01   6.422090811827948E-01   6.019432103712197E-01
   5.598177243742204E-01   5.158797122551534E-01   4.701841784938723E-01
   4.227943831627060E-01   3.737821727939862E-01   3.232282990793468E-01
   2.712227222854950E-01   2.178648960064823E-01   1.632640295997772E-01
   1.075393243740787E-01   5.082017931249803E-02  -6.753638172474011E-03
  -6.503186124348150E-02  -1.238536374789057E-01  -1.830474929058521E-01
  -2.424313518520937E-01  -3.018126185000906E-01  -3.609883262641355E-01
  -4.197453613255122E-01  -4.778607668441325E-01  -5.351021345116428E-01
  -5.912280902129017E-01  -6.459888806117748E-01  -6.991270674643226E-01
  -7.503783363779056E-01  -7.994724265679163E-01  -8.461341879034980E-01
  -8.900847711676974E-01  -9.310429569733538E-01  -9.687266281604072E-01
  -1.002854389739438E+00  -1.033147339526070E+00  -1.059330991517041E+00
  -1.081137352777061E+00  -1.098307153121925E+00  -1.110592225184386E+00
  -1.117758030522342E+00  -1.119586325262775E+00  -1.115877956360141E+00
  -1.106455776877199E+00  -1.091167665765568E+00  -1.069889634431644E+00
  -1.042528998924596E+00  -1.009027592885783E+00  -9.693649924675662E-01
  -9.235617202860396E-01  -8.716823911460657E-01  -8.138387578068433E-01
  -7.501926104906302E-01  -6.809584792360117E-01  -6.064060836321605E-01
  -5.268624700271435E-01  -4.427137720808178E-01  -3.544065266456271E-01
  -2.624484735365680E-01  -1.674087649407527E-01  -6.991750817930979E-02
   2.933543555235369E-02   1.296024737829844E-01   2.300812026127801E-01
   3.299182967450699E-01   4.282144378689069E-01   5.240303427642573E-01
   6.163939434489419E-01   7.043087601500417E-01   7.867634936484899E-01
   8.627428464213882E-01   9.312395618302454E-01   9.912676472547132E-01
   1.041876720484698E+00   1.082167388861414E+00   1.111307537685801E+00
   1.128549368476113E+00   1.133246989057141E+00   1.124874316637059E+00
   1.103043012560843E+00   1.067520124075586E+00   1.018245065139211E+00
   9.553455261811692E-01   8.791518631164283E-01   7.902094803647256E-01
   6.892886928831563E-01   5.773915302242520E-01   4.557549335015282E-01
   3.258497961411004E-01   1.893753137859638E-01   4.824814010529014E-02
  -9.541410411327184E-02  -2.393153490736916E-01  -3.810099060911851E-01
  -5.179377737952527E-01  -6.474664374311299E-01  -7.669390045819257E-01
  -8.737283206695183E-01  -9.652964828579218E-01  -1.039258924196576E+00
  -1.093451975066680E+00  -1.126007811275243E+00  -1.135436013039338E+00
  -1.120669371728395E+00  -1.081103917222386E+00  -1.016703113981630E+00
  -9.280279623084673E-01  -8.162813804319752E-01  -6.833323065816741E-01
  -5.317236146126906E-01  -3.646604619391720E-01  -1.859767857202162E-01
  -7.806901511492075E-05   1.881409267860365E-01   3.734040225498031E-01
   5.501867301859994E-01   7.128732080789195E-01   8.559344695868542E-01
   9.741239523133818E-01   1.062685190791669E+00   1.117564957077398E+00
   1.135623908741249E+00   1.114835590549383E+00   1.054463664322207E+00
   9.552065890118595E-01   8.192987423643190E-01   6.505572683232732E-01
   4.543648449255316E-01   2.375801748586960E-01   8.370359712320679E-03
  -2.240375504756103E-01  -4.496846628005114E-01  -6.582822859790204E-01
  -8.396771239347866E-01  -9.843634391022448E-01  -1.084020583337883E+00
  -1.132049190913952E+00  -1.124074957680517E+00  -1.058385752289673E+00
  -9.362662999895094E-01  -7.621953162703836E-01  -5.438731635959123E-01
  -2.920541759283327E-01  -2.016690516509234E-02   2.562823553425046E-01
   5.205126286484032E-01   7.554508884675744E-01   9.448492597089231E-01
   1.074473891602113E+00   1.133286407471191E+00   1.114526099928724E+00
   1.016593669322740E+00   8.436371462474066E-01   6.057492965098550E-01
   3.187043976847616E-01   3.191188130235259E-03  -3.164625603334128E-01
  -6.140317575412110E-01  -8.635083266448557E-01  -1.041442287511566E+00
  -1.129316396496458E+00  -1.115724952262710E+00  -9.981088463042695E-01
  -7.838041157403081E-01  -4.901948129797405E-01  -1.438252532746264E-01
   2.215793594815955E-01   5.681163760714577E-01   8.575320890072642E-01
   1.055535354215464E+00   1.136144792810647E+00   1.085534339614172E+00
   9.048161474875100E-01   6.112460781394984E-01   2.374646596108754E-01
  -1.714051460610423E-01  -5.627061190054402E-01  -8.828277981610075E-01
  -1.084692329576185E+00  -1.135154238979228E+00  -1.021167423510484E+00
  -7.535743688554143E-01  -3.675670247715068E-01   8.073490216042638E-02
   5.215701322489716E-01   8.819857303691262E-01   1.098060797805395E+00
   1.126949472375070E+00   9.564883770922409E-01   6.101976311584471E-01
   1.460425664491175E-01  -3.516951594556947E-01  -7.867742985480076E-01
  -1.069483445130416E+00  -1.135913254701570E+00  -9.639139094154944E-01
  -5.816911131829547E-01  -6.601214894753844E-02   4.710522922865005E-01
   9.053151882810689E-01   1.129313459605558E+00   1.080348480110466E+00
   7.603759929839420E-01   2.413153403729089E-01  -3.477591709662616E-01
  -8.506047365727064E-01  -1.124937211749881E+00  -1.084347296641585E+00
  -7.286376471556519E-01  -1.516580391503626E-01   4.790564124907364E-01
   9.684007550565114E-01   1.154178142117916E+00   9.637174850875165E-01
   4.466083012635586E-01  -2.314309987970373E-01  -8.369700755984317E-01
  -1.147812525640439E+00  -1.037026330606538E+00  -5.302249194222655E-01
   1.905364826355908E-01   8.456096686483853E-01   1.163980380460924E+00
   9.984562051301344E-01   4.007631651067885E-01  -3.829647052957366E-01
  -1.005931538347831E+00  -1.172736003253088E+00  -7.851166143157007E-01
  -8.537130297973421E-03   7.858087512155345E-01   1.192103095173976E+00
   9.802332220620235E-01   2.368593362905965E-01  -6.518380684639113E-01
  -1.189885782748531E+00  -1.048991450114570E+00  -2.808191098757177E-01
   6.764620846004117E-01   1.233451807813243E+00   1.012569205008298E+00
   1.187628072953586E-01  -8.805148587603020E-01  -1.298928659463412E+00
  -8.060473974022870E-01   2.923344204138608E-01   1.210995584555943E+00
   1.232521688141102E+00   2.802915483461364E-01  -9.419775524807781E-01
  -1.436988907932890E+00  -7.257325327298674E-01   6.650944693901119E-01
   1.538767287802934E+00   1.037717769772779E+00  -4.938304727437948E-01
  -1.661029228372140E+00  -1.246335791518679E+00   5.084968816239290E-01
   1.902074621410779E+00   1.353848939242157E+00  -8.055953611592501E-01
  -2.322732841987718E+00  -1.268479486605603E+00   1.541537584135858E+00
   2.898412979380591E+00   7.084266611548417E-01  -2.930705441837577E+00
  -3.357644593280241E+00   9.314537284552881E-01   5.076771102772108E+00
   2.793442326486244E+00  -4.626713250674978E+00  -7.318137757180685E+00
    </PP_AEWFC.2>
    <PP_AEWFC.3 index="3" label="2P" l="1">
   3.073762129186528E-07   3.138425954931207E-07   3.204450136547355E-07
   3.271863292324649E-07   3.340783772052996E-07   3.411432325220024E-07
   3.483798504400815E-07   3.557930606566138E-07   3.633868355820601E-07
   3.711652454779955E-07   3.791324622515793E-07   3.872927618028436E-07
   3.956505264789479E-07   4.042102476109696E-07   4.129765281132240E-07
   4.219540851490908E-07   4.311477528647998E-07   4.405624851928583E-07
   4.502033587268364E-07   4.600755756692711E-07   4.701844668544956E-07
   4.805354948482417E-07   4.911342571259177E-07   5.019864893315067E-07
   5.130980686190804E-07   5.244750170789785E-07   5.361235052507508E-07
   5.480498557250148E-07   5.602605468364360E-07   5.727622164500959E-07
   5.855616658435636E-07   5.986658636870562E-07   6.120819501241227E-07
   6.258172409553566E-07   6.398792319276976E-07   6.542756031319575E-07
   6.690142235112611E-07   6.841031554831692E-07   6.995506596783171E-07
   7.153651997984745E-07   7.315554475970049E-07   7.481302879847790E-07
   7.650988242646746E-07   7.824703834978697E-07   8.002545220052250E-07
   8.184610310071238E-07   8.370999424052341E-07   8.561815347097341E-07
   8.757163391156399E-07   8.957151457319611E-07   9.161890099675043E-07
   9.371492590772416E-07   9.586074988732614E-07   9.805756206044152E-07
   1.003065808008879E-06   1.026090544543962E-06   1.049662620797587E-06
   1.073795142085999E-06   1.098501536242349E-06   1.123795561600950E-06
   1.149691315182076E-06   1.176203241082350E-06   1.203346139075846E-06
   1.231135173431196E-06   1.259585881950097E-06   1.288714185232772E-06
   1.318536396176050E-06   1.349069229709920E-06   1.380329812778487E-06
   1.412335694571492E-06   1.445104857012640E-06   1.478655725511183E-06
   1.513007179983335E-06   1.548178566150300E-06   1.584189707119804E-06
   1.621060915258270E-06   1.658813004360872E-06   1.697467302126968E-06
   1.737045662948525E-06   1.777570481019390E-06   1.819064703773438E-06
   1.861551845659825E-06   1.905056002263800E-06   1.949601864781704E-06
   1.995214734859053E-06   2.041920539800765E-06   2.089745848162869E-06
   2.138717885735235E-06   2.188864551925111E-06   2.240214436551510E-06
   2.292796837060715E-06   2.346641776173454E-06   2.401780019974542E-06
   2.458243096456063E-06   2.516063314525440E-06   2.575273783490031E-06
   2.635908433030165E-06   2.698002033672839E-06   2.761590217778613E-06
   2.826709501054522E-06   2.893397304606171E-06   2.961691977542504E-06
   3.031632820147061E-06   3.103260107629883E-06   3.176615114474600E-06
   3.251740139395573E-06   3.328678530920338E-06   3.407474713612994E-06
   3.488174214954542E-06   3.570823692896613E-06   3.655470964105393E-06
   3.742165032913003E-06   3.830956120994013E-06   3.921895697785198E-06
   4.015036511667110E-06   4.110432621926487E-06   4.208139431519005E-06
   4.308213720652362E-06   4.410713681210175E-06   4.515698952037672E-06
   4.623230655110716E-06   4.733371432610188E-06   4.846185484924326E-06
   4.961738609602195E-06   5.080098241281998E-06   5.201333492618567E-06
   5.325515196234930E-06   5.452715947723543E-06   5.583010149723306E-06
   5.716474057099236E-06   5.853185823252261E-06   5.993225547587305E-06
   6.136675324168552E-06   6.283619291591451E-06   6.434143684101793E-06
   6.588336883992924E-06   6.746289475312920E-06   6.908094298914370E-06
   7.073846508880172E-06   7.243643630359624E-06   7.417585618849893E-06
   7.595774920958848E-06   7.778316536686123E-06   7.965318083260160E-06
   8.156889860569965E-06   8.353144918231213E-06   8.554199124327358E-06
   8.760171235867382E-06   8.971182971002852E-06   9.187359083048010E-06
   9.408827436347699E-06   9.635719084039004E-06   9.868168347753695E-06
   1.010631289930959E-05   1.035029384444027E-05   1.060025580861376E-05
   1.085634702499193E-05   1.111871942458379E-05   1.138752872864711E-05
   1.166293454339412E-05   1.194510045705831E-05   1.223419413938102E-05
   1.253038744357770E-05   1.283385651084526E-05   1.314478187747349E-05
   1.346334858462508E-05   1.378974629085012E-05   1.412416938740310E-05
   1.446681711643137E-05   1.481789369210641E-05   1.517760842477053E-05
   1.554617584817356E-05   1.592381584987603E-05   1.631075380489698E-05
   1.670722071268651E-05   1.711345333750541E-05   1.752969435229576E-05
   1.795619248612879E-05   1.839320267531820E-05   1.884098621828954E-05
   1.929981093429802E-05   1.976995132608979E-05   2.025168874660398E-05
   2.074531156981475E-05   2.125111536581562E-05   2.176940308025046E-05
   2.230048521819797E-05   2.284468003261942E-05   2.340231371748191E-05
   2.397372060567190E-05   2.455924337181699E-05   2.515923324013640E-05
   2.577405019744385E-05   2.640406321142907E-05   2.704965045434779E-05
   2.771119953225272E-05   2.838910771990154E-05   2.908378220148095E-05
   2.979564031728945E-05   3.052510981652477E-05   3.127262911632534E-05
   3.203864756721907E-05   3.282362572513604E-05   3.362803563014571E-05
   3.445236109208305E-05   3.529709798323184E-05   3.616275453823765E-05
   3.704985166142682E-05   3.795892324171237E-05   3.889051647527168E-05
   3.984519219618567E-05   4.082352521523321E-05   4.182610466703963E-05
   4.285353436578256E-05   4.390643316966343E-05   4.498543535435772E-05
   4.609119099566231E-05   4.722436636156329E-05   4.838564431395309E-05
   4.957572472023104E-05   5.079532487502713E-05   5.204517993229442E-05
   5.332604334802130E-05   5.463868733382082E-05   5.598390332166032E-05
   5.736250244000082E-05   5.877531600162210E-05   6.022319600341563E-05
   6.170701563843451E-05   6.322766982049613E-05   6.478607572164010E-05
   6.638317332275170E-05   6.801992597766745E-05   6.969732099108775E-05
   7.141637021062834E-05   7.317811063335080E-05   7.498360502711964E-05
   7.683394256714210E-05   7.873023948805460E-05   8.067363975192895E-05
   8.266531573257921E-05   8.470646891655978E-05   8.679833062125366E-05
   8.894216273045964E-05   9.113925844789622E-05   9.339094306904968E-05
   9.569857477180418E-05   9.806354542630103E-05   1.004872814244851E-04
   1.029712445298066E-04   1.055169327475576E-04   1.081258812163331E-04
   1.107996631211179E-04   1.135398906285120E-04   1.163482158446191E-04
   1.192263317961345E-04   1.221759734351808E-04   1.251989186684526E-04
   1.282969894112436E-04   1.314720526669434E-04   1.347260216326032E-04
   1.380608568311846E-04   1.414785672711184E-04   1.449812116338147E-04
   1.485708994897804E-04   1.522497925440150E-04   1.560201059113689E-04
   1.598841094225662E-04   1.638441289616080E-04   1.679025478352882E-04
   1.720618081755712E-04   1.763244123755958E-04   1.806929245600872E-04
   1.851699720909784E-04   1.897582471090546E-04   1.944605081124584E-04
   1.992795815729082E-04   2.042183635905001E-04   2.092798215879861E-04
   2.144669960454379E-04   2.197830022762266E-04   2.252310322452678E-04
   2.308143564305037E-04   2.365363257286137E-04   2.424003734059651E-04
   2.484100170958412E-04   2.545688608430009E-04   2.608805971966506E-04
   2.673490093529314E-04   2.739779733480450E-04   2.807714603031709E-04
   2.877335387223467E-04   2.948683768445096E-04   3.021802450509259E-04
   3.096735183292539E-04   3.173526787955178E-04   3.252223182752947E-04
   3.332871409454423E-04   3.415519660377239E-04   3.500217306057156E-04
   3.587014923564078E-04   3.675964325479421E-04   3.767118589549551E-04
   3.860532089030296E-04   3.956260523737833E-04   4.054360951821586E-04
   4.154891822275050E-04   4.257913008200795E-04   4.363485840846236E-04
   4.471673144427046E-04   4.582539271755472E-04   4.696150140691111E-04
   4.812573271432077E-04   4.931877824664802E-04   5.054134640591128E-04
   5.179416278851623E-04   5.307797059364514E-04   5.439353104099897E-04
   5.574162379809366E-04   5.712304741731483E-04   5.853861978293950E-04
   5.998917856833755E-04   6.147558170356875E-04   6.299870785359616E-04
   6.455945690734004E-04   6.615875047780084E-04   6.779753241348395E-04
   6.947676932136285E-04   7.119745110162202E-04   7.296059149442452E-04
   7.476722863895447E-04   7.661842564498792E-04   7.851527117725095E-04
   8.045888005282772E-04   8.245039385188602E-04   8.449098154199211E-04
   8.658184011629162E-04   8.872419524583744E-04   9.091930194635048E-04
   9.316844525970385E-04   9.547294095042555E-04   9.783413621751961E-04
   1.002534104219106E-03   1.027321758298204E-03   1.052718783723928E-03
   1.078739984218833E-03   1.105400515847397E-03   1.132715895119016E-03
   1.160702007266527E-03   1.189375114703644E-03   1.218751865664748E-03
   1.248849303030503E-03   1.279684873342847E-03   1.311276436012925E-03
   1.343642272725610E-03   1.376801097044265E-03   1.410772064219515E-03
   1.445574781205751E-03   1.481229316889243E-03   1.517756212531689E-03
   1.555176492433146E-03   1.593511674818281E-03   1.632783782949987E-03
   1.673015356474376E-03   1.714229463001281E-03   1.756449709924400E-03
   1.799700256485256E-03   1.844005826085222E-03   1.889391718849868E-03
   1.935883824449931E-03   1.983508635183278E-03   2.032293259322224E-03
   2.082265434730641E-03   2.133453542755316E-03   2.185886622396022E-03
   2.239594384758867E-03   2.294607227797422E-03   2.350956251346246E-03
   2.408673272451384E-03   2.467790841002485E-03   2.528342255671169E-03
   2.590361580160333E-03   2.653883659769051E-03   2.718944138277789E-03
   2.785579475158638E-03   2.853826963115256E-03   2.923724745957275E-03
   2.995311836813862E-03   3.068628136691167E-03   3.143714453378363E-03
   3.220612520706980E-03   3.299365018168213E-03   3.380015590892886E-03
   3.462608869998697E-03   3.547190493309364E-03   3.633807126450271E-03
   3.722506484325127E-03   3.813337352978169E-03   3.906349611846334E-03
   4.001594256405813E-03   4.099123421217308E-03   4.198990403374265E-03
   4.301249686358260E-03   4.405956964305667E-03   4.513169166689594E-03
   4.622944483421056E-03   4.735342390373133E-03   4.850423675331885E-03
   4.968250464377560E-03   5.088886248699551E-03   5.212395911848432E-03
   5.338845757428197E-03   5.468303537231738E-03   5.600838479822355E-03
   5.736521319563977E-03   5.875424326102520E-03   6.017621334300652E-03
   6.163187774627996E-03   6.312200704008558E-03   6.464738837126970E-03
   6.620882578194849E-03   6.780714053178294E-03   6.944317142487303E-03
   7.111777514127560E-03   7.283182657314734E-03   7.458621916551120E-03
   7.638186526164080E-03   7.821969645305411E-03   8.010066393410368E-03
   8.202573886114676E-03   8.399591271627449E-03   8.601219767557520E-03
   8.807562698190200E-03   9.018725532211029E-03   9.234815920872601E-03
   9.455943736599998E-03   9.682221112029850E-03   9.913762479477501E-03
   1.015068461082610E-02   1.039310665783098E-02   1.064115019283179E-02
   1.089493924986464E-02   1.115460036616522E-02   1.142026262405378E-02
   1.169205769319166E-02   1.197011987319852E-02   1.225458613661862E-02
   1.254559617222352E-02   1.284329242863803E-02   1.314782015827497E-02
   1.345932746156375E-02   1.377796533145662E-02   1.410388769819553E-02
   1.443725147432155E-02   1.477821659990777E-02   1.512694608799547E-02
   1.548360607021225E-02   1.584836584254981E-02   1.622139791127763E-02
   1.660287803896782E-02   1.699298529060501E-02   1.739190207975400E-02
   1.779981421475629E-02   1.821691094492559E-02   1.864338500671082E-02
   1.907943266979352E-02   1.952525378308538E-02   1.998105182058987E-02
   2.044703392709052E-02   2.092341096362653E-02   2.141039755271511E-02
   2.190821212327782E-02   2.241707695522684E-02   2.293721822366495E-02
   2.346886604265140E-02   2.401225450848389E-02   2.456762174244499E-02
   2.513520993295911E-02   2.571526537710472E-02   2.630803852142360E-02
   2.691378400196756E-02   2.753276068352052E-02   2.816523169793161E-02
   2.881146448149297E-02   2.947173081129337E-02   3.014630684047652E-02
   3.083547313233068E-02   3.153951469313348E-02   3.225872100367369E-02
   3.299338604936897E-02   3.374380834889602E-02   3.451029098124718E-02
   3.529314161112468E-02   3.609267251258115E-02   3.690920059081207E-02
   3.774304740200358E-02   3.859453917113560E-02   3.946400680763783E-02
   4.035178591879325E-02   4.125821682078065E-02   4.218364454724498E-02
   4.312841885528127E-02   4.409289422871479E-02   4.507742987855721E-02
   4.608238974051545E-02   4.710814246942681E-02   4.815506143049085E-02
   4.922352468716547E-02   5.031391498559156E-02   5.142661973540719E-02
   5.256203098680969E-02   5.372054540372023E-02   5.490256423290298E-02
   5.610849326888731E-02   5.733874281453871E-02   5.859372763712089E-02
   5.987386691968850E-02   6.117958420764677E-02   6.251130735031145E-02
   6.386946843729949E-02   6.525450372957789E-02   6.666685358499534E-02
   6.810696237811818E-02   6.957527841419023E-02   7.107225383703228E-02
   7.259834453069527E-02   7.415401001467846E-02   7.573971333252132E-02
   7.735592093357577E-02   7.900310254776316E-02   8.068173105311839E-02
   8.239228233592162E-02   8.413523514321618E-02   8.591107092751016E-02
   8.772027368345717E-02   8.956332977631093E-02   9.144072776194723E-02
   9.335295819824629E-02   9.530051344762747E-02   9.728388747052856E-02
   9.930357560962175E-02   1.013600743645582E-01   1.034538811570346E-01
   1.055854940859748E-01   1.077554116726227E-01   1.099641325953418E-01
   1.122121554139206E-01   1.144999782831859E-01   1.168280986557261E-01
   1.191970129735340E-01   1.216072163483772E-01   1.240592022307157E-01
   1.265534620669821E-01   1.290904849450534E-01   1.316707572277451E-01
   1.342947621741642E-01   1.369629795487687E-01   1.396758852179842E-01
   1.424339507342419E-01   1.452376429073063E-01   1.480874233627761E-01
   1.509837480876476E-01   1.539270669628464E-01   1.569178232826409E-01
   1.599564532608682E-01   1.630433855239158E-01   1.661790405904165E-01
   1.693638303376316E-01   1.725981574545140E-01   1.758824148814609E-01
   1.792169852367836E-01   1.826022402299451E-01   1.860385400616331E-01
   1.895262328107614E-01   1.930656538085161E-01   1.966571249995832E-01
   2.003009542907267E-01   2.039974348869047E-01   2.077468446151463E-01
   2.115494452364350E-01   2.154054817458777E-01   2.193151816614665E-01
   2.232787543017757E-01   2.272963900529653E-01   2.313682596254998E-01
   2.354945133010218E-01   2.396752801698596E-01   2.439106673596812E-01
   2.482007592558435E-01   2.525456167140265E-01   2.569452762657763E-01
   2.613997493176202E-01   2.659090213444567E-01   2.704730510779595E-01
   2.750917696907754E-01   2.797650799773307E-01   2.844928555321016E-01
   2.892749399262390E-01   2.941111458834725E-01   2.990012544562586E-01
   3.039450142031624E-01   3.089421403685037E-01   3.139923140653189E-01
   3.190951814627243E-01   3.242503529787867E-01   3.294574024800309E-01
   3.347158664887313E-01   3.400252433991519E-01   3.453849927039073E-01
   3.507945342316270E-01   3.562532473971060E-01   3.617604704651256E-01
   3.673154998291179E-01   3.729175893058400E-01   3.785659494472023E-01
   3.842597468703787E-01   3.899981036072934E-01   3.957800964745527E-01
   4.016047564648487E-01   4.074710681608217E-01   4.133779691723263E-01
   4.193243495979899E-01   4.253090515119125E-01   4.313308684762925E-01
   4.373885450807229E-01   4.434807765088416E-01   4.496062081329799E-01
   4.557634351374060E-01   4.619510021707276E-01   4.681674030279906E-01
   4.744110803629993E-01   4.806804254313817E-01   4.869737778649451E-01
   4.932894254779024E-01   4.996256041056129E-01   5.059804974765647E-01
   5.123522371184405E-01   5.187389022992489E-01   5.251385200046755E-01
   5.315490649530071E-01   5.379684596492152E-01   5.443945744800428E-01
   5.508252278522228E-01   5.572581863762636E-01   5.636911650985580E-01
   5.701218277849092E-01   5.765477872589008E-01   5.829666057988769E-01
   5.893757955976106E-01   5.957728192890407E-01   6.021550905467214E-01
   6.085199747588423E-01   6.148647897848578E-01   6.211868067988625E-01
   6.274832512248995E-01   6.337513037693525E-01   6.399881015554686E-01
   6.461907393648676E-01   6.523562709906326E-01   6.584817107062344E-01
   6.645640348541225E-01   6.706001835573444E-01   6.765870625570046E-01
   6.825215451777913E-01   6.884004744231590E-01   6.942206652010996E-01
   6.999789066807353E-01   7.056719647792798E-01   7.112965847782013E-01
   7.168494940667254E-01   7.223274050101336E-01   7.277270179396359E-01
   7.330450242599592E-01   7.382781096701719E-01   7.434229574926827E-01
   7.484762521047952E-01   7.534346824666864E-01   7.582949457391964E-01
   7.630537509843675E-01   7.677078229412663E-01   7.722539058692505E-01
   7.766887674504995E-01   7.810092027433327E-01   7.852120381775641E-01
   7.892941355829115E-01   7.932523962412751E-01   7.970837649535296E-01
   8.007852341113361E-01   8.043538477643751E-01   8.077867056733281E-01
   8.110809673388869E-01   8.142338559970658E-01   8.172426625711049E-01
   8.201047495703074E-01   8.228175549262358E-01   8.253785957568054E-01
   8.277854720489610E-01   8.300358702507998E-01   8.321275667642103E-01
   8.340584313293397E-01   8.358264302924715E-01   8.374296297491950E-01
   8.388661985550773E-01   8.401344111964103E-01   8.412326505139873E-01
   8.421594102732761E-01   8.429132975747969E-01   8.434930350989654E-01
   8.438974631801542E-01   8.441255417052175E-01   8.441763518322526E-01
   8.440490975259008E-01   8.437431069060473E-01   8.432578334073322E-01
   8.425928567474632E-01   8.417478837028904E-01   8.407227486909866E-01
   8.395174141584587E-01   8.381319707762920E-01   8.365666374421089E-01
   8.348217610913897E-01   8.328978163195615E-01   8.307954048175129E-01
   8.285152546236161E-01   8.260582191958635E-01   8.234252763082106E-01
   8.206175267756985E-01   8.176361930133730E-01   8.144826174344426E-01
   8.111582606935136E-01   8.076646997810992E-01   8.040036259759415E-01
   8.001768426619785E-01   7.961862630170560E-01   7.920339075807195E-01
   7.877219017086097E-01   7.832524729213671E-01   7.786279481542991E-01
   7.738507487135772E-01   7.689233810119698E-01   7.638484378653495E-01
   7.586286066632987E-01   7.532666557207051E-01   7.477654353356731E-01
   7.421278736228679E-01   7.363569734276082E-01   7.304558090781166E-01
   7.244275231273174E-01   7.182753230833135E-01   7.120024781347806E-01
   7.056123158776170E-01   6.991082190488055E-01   6.924936222731131E-01
   6.857720088278879E-01   6.789469074308444E-01   6.720218890553356E-01
   6.650005637772188E-01   6.578865776570166E-01   6.506836096625586E-01
   6.433953686256696E-01   6.360255902536694E-01   6.285780341798289E-01
   6.210564810632027E-01   6.134647297373954E-01   6.058065944091474E-01
   5.980859019072549E-01   5.903064889819639E-01   5.824721996546501E-01
   5.745868826172805E-01   5.666543886808342E-01   5.586785682715826E-01
   5.506632689738692E-01   5.426123331177922E-01   5.345295954099877E-01
   5.264188806055222E-01   5.182840012187532E-01   5.101287552708812E-01
   5.019569240718244E-01   4.937722700339692E-01   4.855785345153121E-01
   4.773794356894920E-01   4.691786664402275E-01   4.609798922777183E-01
   4.527867492746384E-01   4.446028420194465E-01   4.364317415848628E-01
   4.282769835095123E-01   4.201420657909004E-01   4.120304468880891E-01
   4.039455437326512E-01   3.958907297467206E-01   3.878693328672038E-01
   3.798846335754930E-01   3.719398629323005E-01   3.640382006175285E-01
   3.561827729753989E-01   3.483766510653757E-01   3.406228487197366E-01
   3.329243206089706E-01   3.252839603165074E-01   3.177045984246036E-01
   3.101890006135372E-01   3.027398657765777E-01   2.953598241535046E-01
   2.880514354857543E-01   2.808171871965576E-01   2.736594925997091E-01
   2.665806891408696E-01   2.595830366755437E-01   2.526687157880990E-01
   2.458398261563957E-01   2.390983849667758E-01   2.324463253843165E-01
   2.258854950833836E-01   2.194176548436241E-01   2.130444772166139E-01
   2.067675452684238E-01   2.005883514033840E-01   1.945082962743166E-01
   1.885286877844611E-01   1.826507401862441E-01   1.768755732819378E-01
   1.712042117311175E-01   1.656375844696577E-01   1.601765242448069E-01
   1.548217672706566E-01   1.495739530080532E-01   1.444336240727221E-01
   1.394012262750505E-01   1.344771087946373E-01   1.296615244923491E-01
   1.249546303622296E-01   1.203564881251970E-01   1.158670649660281E-01
   1.114862344146773E-01   1.072137773725079E-01   1.030493832835312E-01
   9.899265145025309E-02   9.504309249322355E-02   9.120012995287444E-02
   8.746310203171265E-02   8.383126347442092E-02   8.030378758290069E-02
   7.687976836277932E-02   7.355822279739835E-02   7.033809324480177E-02
   6.721824995275966E-02   6.419749368639201E-02   6.127455846250578E-02
   5.844811438432527E-02   5.571677056988705E-02   5.307907816698573E-02
   5.053353344719988E-02   4.807858097120029E-02   4.571261681724615E-02
   4.343399186451350E-02   4.124101512267230E-02   3.913195709893873E-02
   3.710505319367668E-02   3.515850711550915E-02   3.329049430682725E-02
   3.149916537055097E-02   2.978264948900478E-02   2.813905782581951E-02
   2.656648690186207E-02   2.506302193632506E-02   2.362674014427794E-02
   2.225571398219110E-02   2.094801433319025E-02   1.970171362408214E-02
   1.851488886651013E-02   1.738562461494907E-02   1.631201583463041E-02
   1.529217067289870E-02   1.432421312793723E-02   1.340628560926043E-02
   1.253655138485184E-02   1.171319691032563E-02   1.093443403600403E-02
   1.019850208832949E-02   9.503669822566339E-03   8.848237244288452E-03
   8.230537297694124E-03   7.648937419334333E-03   7.101840956382001E-03
   6.587688449105457E-03   6.104958777735899E-03   5.652170174433330E-03
   5.227881101555924E-03   4.830690997920981E-03   4.459240895209776E-03
   4.112213907111001E-03   3.788335594216406E-03   3.486374208075719E-03
   3.205140818184393E-03   2.943489326015716E-03   2.700316370517240E-03
   2.474561129769210E-03   2.265205023749099E-03   2.071271323360863E-03
   1.891824671069800E-03   1.725970518633894E-03   1.572854487540275E-03
   1.431661657841299E-03   1.301615791139199E-03   1.181978493491971E-03
   1.072048324007360E-03   9.711598548534702E-04   8.786826883675384E-04
   7.940204368055484E-04   7.166096702500593E-04   6.459188379838974E-04
   5.814471684456242E-04   5.227235528262304E-04   4.693054170549403E-04
   4.207775867344342E-04   3.767511493606726E-04   3.368623176393591E-04
   3.007713114528748E-04   2.681610923278328E-04   2.387372188825553E-04
   2.122232138319471E-04   1.883673373496348E-04   1.669367028693294E-04
   1.477125945553408E-04   1.304919659911981E-04   1.150874807093654E-04
   1.013265314810329E-04   8.905029136820685E-05   7.811279649895121E-05
   6.838006025183998E-05   5.972921816237654E-05   5.204770247939875E-05
   4.523244485049018E-05   3.918910511284496E-05   3.383132370206131E-05
   2.907999416451952E-05   2.486254817406480E-05   2.111231017874947E-05
   1.776746792428847E-05   1.478208117947256E-05   1.204822233386253E-05
   0.000000000000000E+00   0.000000000000000E+00   0.000000000000000E+00
   0.000000000000000E+00   0.000000000000000E+00   0.000000000000000E+00
   0.000000000000000E+00   0.000000000000000E+00   0.000000000000000E+00
   0.000000000000000E+00   0.000000000000000E+00   0.000000000000000E+00
   0.000000000000000E+00   0.000000000000000E+00   0.000000000000000E+00
   0.000000000000000E+00   0.000000000000000E+00   0.000000000000000E+00
   0.000000000000000E+00   0.000000000000000E+00   0.000000000000000E+00
   0.000000000000000E+00   0.000000000000000E+00   0.000000000000000E+00
   0.000000000000000E+00   0.000000000000000E+00   0.000000000000000E+00
   0.000000000000000E+00   0.000000000000000E+00   0.000000000000000E+00
   0.000000000000000E+00   0.000000000000000E+00   0.000000000000000E+00
   0.000000000000000E+00   0.000000000000000E+00   0.000000000000000E+00
   0.000000000000000E+00   0.000000000000000E+00   0.000000000000000E+00
   0.000000000000000E+00   0.000000000000000E+00   0.000000000000000E+00
   0.000000000000000E+00   0.000000000000000E+00   0.000000000000000E+00
   0.000000000000000E+00   0.000000000000000E+00   0.000000000000000E+00
   0.000000000000000E+00   0.000000000000000E+00   0.000000000000000E+00
   0.000000000000000E+00   0.000000000000000E+00   0.000000000000000E+00
   0.000000000000000E+00   0.000000000000000E+00   0.000000000000000E+00
   0.000000000000000E+00   0.000000000000000E+00   0.000000000000000E+00
   0.000000000000000E+00   0.000000000000000E+00   0.000000000000000E+00
   0.000000000000000E+00   0.000000000000000E+00   0.000000000000000E+00
   0.000000000000000E+00   0.000000000000000E+00   0.000000000000000E+00
   0.000000000000000E+00   0.000000000000000E+00   0.000000000000000E+00
   0.000000000000000E+00   0.000000000000000E+00   0.000000000000000E+00
   0.000000000000000E+00   0.000000000000000E+00   0.000000000000000E+00
   0.000000000000000E+00   0.000000000000000E+00   0.000000000000000E+00
   0.000000000000000E+00   0.000000000000000E+00   0.000000000000000E+00
   0.000000000000000E+00   0.000000000000000E+00   0.000000000000000E+00
   0.000000000000000E+00   0.000000000000000E+00   0.000000000000000E+00
   0.000000000000000E+00   0.000000000000000E+00   0.000000000000000E+00
   0.000000000000000E+00   0.000000000000000E+00   0.000000000000000E+00
   0.000000000000000E+00   0.000000000000000E+00   0.000000000000000E+00
   0.000000000000000E+00   0.000000000000000E+00   0.000000000000000E+00
   0.000000000000000E+00   0.000000000000000E+00   0.000000000000000E+00
   0.000000000000000E+00   0.000000000000000E+00   0.000000000000000E+00
   0.000000000000000E+00   0.000000000000000E+00   0.000000000000000E+00
   0.000000000000000E+00   0.000000000000000E+00   0.000000000000000E+00
   0.000000000000000E+00   0.000000000000000E+00   0.000000000000000E+00
   0.000000000000000E+00   0.000000000000000E+00   0.000000000000000E+00
   0.000000000000000E+00   0.000000000000000E+00   0.000000000000000E+00
   0.000000000000000E+00   0.000000000000000E+00   0.000000000000000E+00
   0.000000000000000E+00   0.000000000000000E+00   0.000000000000000E+00
   0.000000000000000E+00   0.000000000000000E+00   0.000000000000000E+00
   0.000000000000000E+00   0.000000000000000E+00   0.000000000000000E+00
   0.000000000000000E+00   0.000000000000000E+00   0.000000000000000E+00
   0.000000000000000E+00   0.000000000000000E+00   0.000000000000000E+00
   0.000000000000000E+00   0.000000000000000E+00   0.000000000000000E+00
   0.000000000000000E+00   0.000000000000000E+00   0.000000000000000E+00
   0.000000000000000E+00   0.000000000000000E+00   0.000000000000000E+00
   0.000000000000000E+00   0.000000000000000E+00   0.000000000000000E+00
    </PP_AEWFC.3>
    <PP_AEWFC.4 index="4" label="2P" l="1">
   2.188641392934672E-07   2.234684619346527E-07   2.281696473467451E-07
   2.329697332662625E-07   2.378771466907664E-07   2.429076059081229E-07
   2.480603670113776E-07   2.533388689419446E-07   2.587459402169352E-07
   2.642844790274307E-07   2.699574559403104E-07   2.757679155696167E-07
   2.817189783240847E-07   2.878138422134406E-07   2.940557846992244E-07
   3.004481645929672E-07   3.069944240027587E-07   3.136980903294021E-07
   3.205627783133792E-07   3.275921921338788E-07   3.347901275611744E-07
   3.421604741636690E-07   3.497072175709584E-07   3.574344417943000E-07
   3.653463316059084E-07   3.734471749785348E-07   3.817413655868254E-07
   3.902334053719923E-07   3.989279071713662E-07   4.078295974144450E-07
   4.169433188870891E-07   4.262740335655572E-07   4.358268255221215E-07
   4.456069039040411E-07   4.556196059877220E-07   4.658704003099348E-07
   4.763648898780085E-07   4.871088154609731E-07   4.981080589636632E-07
   5.093686468858552E-07   5.208967538685597E-07   5.326987063296397E-07
   5.447809861909889E-07   5.571502346995535E-07   5.698132563445400E-07
   5.827770228732137E-07   5.960486774077487E-07   6.096355386656563E-07
   6.235451052863785E-07   6.377850602667018E-07   6.523632755077110E-07
   6.672878164760717E-07   6.825669469825014E-07   6.982091340803597E-07
   7.142230530873624E-07   7.306175927334983E-07   7.474018604383093E-07
   7.645851877207672E-07   7.821771357450689E-07   8.001875010057463E-07
   8.186263211555850E-07   8.375038809799188E-07   8.568307185209704E-07
   8.766176313559894E-07   8.968756830330404E-07   9.176162096683879E-07
   9.388508267095241E-07   9.605914358679844E-07   9.828502322262046E-07
   1.005639711522777E-06   1.028972677620571E-06   1.052862250162295E-06
   1.077321872418205E-06   1.102365319330751E-06   1.128006705761107E-06
   1.154260494942644E-06   1.181141507146507E-06   1.208664928564631E-06
   1.236846320415622E-06   1.265701628279096E-06   1.295247191664189E-06
   1.325499753818097E-06   1.356476471780674E-06   1.388194926691220E-06
   1.420673134353805E-06   1.453929556067569E-06   1.487983109728657E-06
   1.522853181210571E-06   1.558559636029926E-06   1.595122831304728E-06
   1.632563628012525E-06   1.670903403555910E-06   1.710164064643085E-06
   1.750368060491366E-06   1.791538396361699E-06   1.833698647432490E-06
   1.876872973021219E-06   1.921086131162551E-06   1.966363493551852E-06
   2.012731060863265E-06   2.060215478451701E-06   2.108844052448353E-06
   2.158644766259569E-06   2.209646297479184E-06   2.261878035224634E-06
   2.315370097907457E-06   2.370153351449030E-06   2.426259427952694E-06
   2.483720744843645E-06   2.542570524488309E-06   2.602842814305163E-06
   2.664572507379297E-06   2.727795363593296E-06   2.792548031287342E-06
   2.858868069461757E-06   2.926793970535538E-06   2.996365183674767E-06
   3.067622138705128E-06   3.140606270623111E-06   3.215360044720871E-06
   3.291926982340023E-06   3.370351687270113E-06   3.450679872807821E-06
   3.532958389493411E-06   3.617235253541299E-06   3.703559675982088E-06
   3.791982092533780E-06   3.882554194220387E-06   3.975328958756557E-06
   4.070360682717317E-06   4.167705014512518E-06   4.267418988186040E-06
   4.369561058060285E-06   4.474191134247071E-06   4.581370619046465E-06
   4.691162444255718E-06   4.803631109410937E-06   4.918842720984742E-06
   5.036865032563708E-06   5.157767486029983E-06   5.281621253772084E-06
   5.408499281950475E-06   5.538476334844177E-06   5.671629040305317E-06
   5.808035936349154E-06   5.947777518907841E-06   6.090936290776848E-06
   6.237596811783695E-06   6.387845750209401E-06   6.541771935493738E-06
   6.699466412256225E-06   6.861022495665538E-06   7.026535828190814E-06
   7.196104437769168E-06   7.369828797424598E-06   7.547811886374279E-06
   7.730159252659181E-06   7.916979077336800E-06   8.108382240274779E-06
   8.304482387585108E-06   8.505396000739577E-06   8.711242467408149E-06
   8.922144154062975E-06   9.138226480391769E-06   9.359617995565390E-06
   9.586450456405505E-06   9.818858907499431E-06   1.005698176331031E-05
   1.030096089233199E-05   1.055094170333927E-05   1.080707323378517E-05
   1.106950824039853E-05   1.133840329203613E-05   1.161391886484517E-05
   1.189621943979315E-05   1.218547360262357E-05   1.248185414629746E-05
   1.278553817598202E-05   1.309670721664915E-05   1.341554732334850E-05
   1.374224919422069E-05   1.407700828631851E-05   1.442002493430512E-05
   1.477150447210033E-05   1.513165735754731E-05   1.550069930017441E-05
   1.587885139212796E-05   1.626634024235439E-05   1.666339811411127E-05
   1.707026306588944E-05   1.748717909582980E-05   1.791439628972086E-05
   1.835217097266482E-05   1.880076586450237E-05   1.926045023908845E-05
   1.973150008751335E-05   2.021419828536612E-05   2.070883476413917E-05
   2.121570668687571E-05   2.173511862816382E-05   2.226738275858379E-05
   2.281281903371752E-05   2.337175538783170E-05   2.394452793234911E-05
   2.453148115922497E-05   2.513296814934837E-05   2.574935078609128E-05
   2.638099997413108E-05   2.702829586367504E-05   2.769162808021874E-05
   2.837139595997316E-05   2.906800879109865E-05   2.978188606088727E-05
   3.051345770903822E-05   3.126316438717466E-05   3.203145772475371E-05
   3.281880060152507E-05   3.362566742669727E-05   3.445254442497458E-05
   3.529992992963109E-05   3.616833468279297E-05   3.705828214310343E-05
   3.797030880094929E-05   3.890496450143243E-05   3.986281277527333E-05
   4.084443117783881E-05   4.185041163649020E-05   4.288136080645300E-05
   4.393790043541385E-05   4.502066773705533E-05   4.613031577374424E-05
   4.726751384859371E-05   4.843294790712533E-05   4.962732094876195E-05
   5.085135344838787E-05   5.210578378821836E-05   5.339136870022610E-05
   5.470888371937797E-05   5.605912364794168E-05   5.744290303112731E-05
   5.886105664433545E-05   6.031443999228984E-05   6.180392982033859E-05
   6.333042463821495E-05   6.489484525655506E-05   6.649813533647740E-05
   6.814126195253515E-05   6.982521616936003E-05   7.155101363232394E-05
   7.331969517255156E-05   7.513232742662501E-05   7.699000347132972E-05
   7.889384347379811E-05   8.084499535741643E-05   8.284463548386779E-05
   8.489396935169356E-05   8.699423231176363E-05   8.914669030005475E-05
   9.135264058814567E-05   9.361341255184673E-05   9.593036845839102E-05
   9.830490427262388E-05   1.007384504826374E-04   1.032324729453068E-04
   1.057884737521951E-04   1.084079921163036E-04   1.110926052801574E-04
   1.138439294457222E-04   1.166636207266655E-04   1.195533761234816E-04
   1.225149345220136E-04   1.255500777159183E-04   1.286606314536290E-04
   1.318484665103873E-04   1.351154997859232E-04   1.384636954283807E-04
   1.418950659850928E-04   1.454116735808305E-04   1.490156311241564E-04
   1.527091035425333E-04   1.564943090468493E-04   1.603735204260353E-04
   1.643490663724660E-04   1.684233328388520E-04   1.725987644273412E-04
   1.768778658115692E-04   1.812632031924084E-04   1.857574057881864E-04
   1.903631673601571E-04   1.950832477740263E-04   1.999204745983502E-04
   2.048777447406429E-04   2.099580261220453E-04   2.151643593914270E-04
   2.204998596798104E-04   2.259677183960255E-04   2.315712050645213E-04
   2.373136692062798E-04   2.431985422637989E-04   2.492293395711286E-04
   2.554096623699665E-04   2.617431998728392E-04   2.682337313744153E-04
   2.748851284120190E-04   2.817013569764346E-04   2.886864797741125E-04
   2.958446585419119E-04   3.031801564155353E-04   3.106973403528364E-04
   3.184006836132031E-04   3.262947682942429E-04   3.343842879270211E-04
   3.426740501311273E-04   3.511689793308714E-04   3.598741195339323E-04
   3.687946371738115E-04   3.779358240174680E-04   3.873031001395382E-04
   3.969020169645686E-04   4.067382603787196E-04   4.168176539124241E-04
   4.271461619955117E-04   4.377298932863387E-04   4.485751040764926E-04
   4.596882017726672E-04   4.710757484573342E-04   4.827444645298679E-04
   4.947012324298065E-04   5.069531004439671E-04   5.195072865991599E-04
   5.323711826422751E-04   5.455523581095570E-04   5.590585644868962E-04
   5.728977394630167E-04   5.870780112774575E-04   6.016077031652859E-04
   6.164953379005064E-04   6.317496424401699E-04   6.473795526712135E-04
   6.633942182620977E-04   6.798030076213420E-04   6.966155129650919E-04
   7.138415554958849E-04   7.314911906948179E-04   7.495747137293498E-04
   7.681026649790110E-04   7.870858356813247E-04   8.065352737002768E-04
   8.264622894197106E-04   8.468784617640532E-04   8.677956443488159E-04
   8.892259717633487E-04   9.111818659883579E-04   9.336760429507356E-04
   9.567215192182833E-04   9.803316188369421E-04   1.004519980313182E-03
   1.029300563744233E-03   1.054687658098875E-03   1.080695888651541E-03
   1.107340224572509E-03   1.134635986677013E-03   1.162598855336110E-03
   1.191244878552188E-03   1.220590480202036E-03   1.250652468450403E-03
   1.281448044337040E-03   1.312994810540207E-03   1.345310780319697E-03
   1.378414386642424E-03   1.412324491493669E-03   1.447060395377098E-03
   1.482641847006685E-03   1.519089053193712E-03   1.556422688932029E-03
   1.594663907684780E-03   1.633834351875831E-03   1.673956163589135E-03
   1.715051995479320E-03   1.757145021896765E-03   1.800258950230466E-03
   1.844418032472006E-03   1.889647077003941E-03   1.935971460615941E-03
   1.983417140752011E-03   2.032010667992142E-03   2.081779198771727E-03
   2.132750508342090E-03   2.184953003975467E-03   2.238415738417768E-03
   2.293168423592449E-03   2.349241444558817E-03   2.406665873728052E-03
   2.465473485340234E-03   2.525696770205651E-03   2.587368950713594E-03
   2.650523996111880E-03   2.715196638060248E-03   2.781422386460791E-03
   2.849237545568501E-03   2.918679230384996E-03   2.989785383338416E-03
   3.062594791252444E-03   3.137147102607334E-03   3.213482845095769E-03
   3.291643443476292E-03   3.371671237726994E-03   3.453609501502037E-03
   3.537502460893524E-03   3.623395313501102E-03   3.711334247811634E-03
   3.801366462891090E-03   3.893540188390770E-03   3.987904704869797E-03
   4.084510364435694E-03   4.183408611704737E-03   4.284652005083615E-03
   4.388294238373750E-03   4.494390162699532E-03   4.602995808761438E-03
   4.714168409414944E-03   4.827966422575841E-03   4.944449554452417E-03
   5.063678783104732E-03   5.185716382330991E-03   5.310625945880783E-03
   5.438472411994678E-03   5.569322088269473E-03   5.703242676848016E-03
   5.840303299932330E-03   5.980574525618412E-03   6.124128394050774E-03
   6.271038443894470E-03   6.421379739122012E-03   6.575228896112207E-03
   6.732664111057588E-03   6.893765187676695E-03   7.058613565227110E-03
   7.227292346814641E-03   7.399886327993710E-03   7.576482025653462E-03
   7.757167707183663E-03   7.942033419913976E-03   8.131171020819688E-03
   8.324674206486362E-03   8.522638543325467E-03   8.725161498032319E-03
   8.932342468277161E-03   9.144282813619590E-03   9.361085886635848E-03
   9.582857064247875E-03   9.809703779242339E-03   1.004173555196713E-02
   1.027906402219205E-02   1.052180298111978E-02   1.077006840353226E-02
   1.102397848005695E-02   1.128365364953655E-02   1.154921663148487E-02
   1.182079245861075E-02   1.209850850939086E-02   1.238249454067143E-02
   1.267288272027789E-02   1.296980765961040E-02   1.327340644620230E-02
   1.358381867621733E-02   1.390118648686051E-02   1.422565458867633E-02
   1.455737029770680E-02   1.489648356748078E-02   1.524314702080472E-02
   1.559751598132362E-02   1.595974850482001E-02   1.633000541021713E-02
   1.670845031025122E-02   1.709524964177671E-02   1.749057269566623E-02
   1.789459164626634E-02   1.830748158036810E-02   1.872942052565027E-02
   1.916058947855120E-02   1.960117243152416E-02   2.005135639962884E-02
   2.051133144641051E-02   2.098129070901635E-02   2.146143042249682E-02
   2.195194994323823E-02   2.245305177147086E-02   2.296494157279501E-02
   2.348782819866574E-02   2.402192370577495E-02   2.456744337426765E-02
   2.512460572472721E-02   2.569363253386254E-02   2.627474884882783E-02
   2.686818300010386E-02   2.747416661286729E-02   2.809293461677275E-02
   2.872472525406986E-02   2.936978008597570E-02   3.002834399722050E-02
   3.070066519868254E-02   3.138699522802582E-02   3.208758894825162E-02
   3.280270454407314E-02   3.353260351601984E-02   3.427755067217573E-02
   3.503781411745385E-02   3.581366524030640E-02   3.660537869676782E-02
   3.741323239172590E-02   3.823750745731321E-02   3.907848822830923E-02
   3.993646221444069E-02   4.081172006946569E-02   4.170455555692443E-02
   4.261526551243734E-02   4.354414980242868E-02   4.449151127915162E-02
   4.545765573188847E-02   4.644289183419731E-02   4.744753108707386E-02
   4.847188775789590E-02   4.951627881501428E-02   5.058102385785351E-02
   5.166644504238194E-02   5.277286700181022E-02   5.390061676237413E-02
   5.505002365405653E-02   5.622141921610087E-02   5.741513709716749E-02
   5.863151294998173E-02   5.987088432032171E-02   6.113359053019227E-02
   6.241997255502982E-02   6.373037289478212E-02   6.506513543870576E-02
   6.642460532372332E-02   6.780912878618110E-02   6.921905300684845E-02
   7.065472594899869E-02   7.211649618941157E-02   7.360471274213785E-02
   7.511972487486568E-02   7.666188191773009E-02   7.823153306440696E-02
   7.982902716533427E-02   8.145471251290391E-02   8.310893661847027E-02
   8.479204598102232E-02   8.650438584736898E-02   8.824629996369007E-02
   9.001813031830753E-02   9.182021687553561E-02   9.365289730047222E-02
   9.551650667459753E-02   9.741137720205070E-02   9.933783790646100E-02
   1.012962143182145E-01   1.032868281520442E-01   1.053099969748371E-01
   1.073660338635607E-01   1.094552470532166E-01   1.115779395747392E-01
   1.137344088827651E-01   1.159249464732096E-01   1.181498374905958E-01
   1.204093603250919E-01   1.227037861992270E-01   1.250333787442638E-01
   1.273983935662227E-01   1.297990778015636E-01   1.322356696625476E-01
   1.347083979723149E-01   1.372174816897301E-01   1.397631294240677E-01
   1.423455389396198E-01   1.449648966503360E-01   1.476213771046150E-01
   1.503151424603964E-01   1.530463419507130E-01   1.558151113398924E-01
   1.586215723706154E-01   1.614658322020605E-01   1.643479828393901E-01
   1.672681005548568E-01   1.702262453008311E-01   1.732224601150807E-01
   1.762567705186536E-01   1.793291839067458E-01   1.824396889329595E-01
   1.855882548873855E-01   1.887748310689686E-01   1.919993461526438E-01
   1.952617075517566E-01   1.985618007763071E-01   2.018994887875857E-01
   2.052746113497911E-01   2.086869843792502E-01   2.121363992918805E-01
   2.156226223495607E-01   2.191453940060980E-01   2.227044282535001E-01
   2.262994119692796E-01   2.299300042655375E-01   2.335958358405857E-01
   2.372965083338833E-01   2.410315936850730E-01   2.448006334979090E-01
   2.486031384098787E-01   2.524385874683163E-01   2.563064275138117E-01
   2.602060725717096E-01   2.641369032524892E-01   2.680982661618008E-01
   2.720894733209242E-01   2.761098015983924E-01   2.801584921535063E-01
   2.842347498924357E-01   2.883377429375820E-01   2.924666021108382E-01
   2.966204204313603E-01   3.007982526284179E-01   3.049991146698702E-01
   3.092219833067689E-01   3.134657956345623E-01   3.177294486713421E-01
   3.220117989535497E-01   3.263116621495340E-01   3.306278126913424E-01
   3.349589834251193E-01   3.393038652804897E-01   3.436611069593287E-01
   3.480293146443421E-01   3.524070517279378E-01   3.567928385619318E-01
   3.611851522287139E-01   3.655824263346122E-01   3.699830508263121E-01
   3.743853718313420E-01   3.787876915238014E-01   3.831882680166967E-01
   3.875853152824586E-01   3.919770031034310E-01   3.963614570543610E-01
   4.007367585191530E-01   4.051009447443965E-01   4.094520089324129E-01
   4.137879003767947E-01   4.181065246436220E-01   4.224057438017257E-01
   4.266833767055259E-01   4.309371993340873E-01   4.351649451901128E-01
   4.393643057626220E-01   4.435329310570311E-01   4.476684301962786E-01
   4.517683720964958E-01   4.558302862205336E-01   4.598516634124071E-01
   4.638299568154229E-01   4.677625828764053E-01   4.716469224380528E-01
   4.754803219210306E-01   4.792600945969509E-01   4.829835219529214E-01
   4.866478551478473E-01   4.902503165601743E-01   4.937881014262626E-01
   4.972583795680749E-01   5.006582972083854E-01   5.039849788712284E-01
   5.072355293648593E-01   5.104070358440500E-01   5.134965699481399E-01
   5.165011900108580E-01   5.194179433375781E-01   5.222438685453181E-01
   5.249759979604917E-01   5.276113600691239E-01   5.301469820139858E-01
   5.325798921328668E-01   5.349071225319914E-01   5.371257116884028E-01
   5.392327070749755E-01   5.412251678015769E-01   5.431001672657948E-01
   5.448547958065452E-01   5.464861633538204E-01   5.479914020677894E-01
   5.493676689604412E-01   5.506121484929735E-01   5.517220551421513E-01
   5.526946359289139E-01   5.535271729025852E-01   5.542169855741440E-01
   5.547614332921279E-01   5.551579175549036E-01   5.554038842531964E-01
   5.554968258369763E-01   5.554342834010132E-01   5.552138486836549E-01
   5.548331659736513E-01   5.542899339201296E-01   5.535819072411379E-01
   5.527068983264998E-01   5.516627787310743E-01   5.504474805548808E-01
   5.490589977069299E-01   5.474953870500063E-01   5.457547694240570E-01
   5.438353305462723E-01   5.417353217863793E-01   5.394530608161160E-01
   5.369869321323125E-01   5.343353874534615E-01   5.314969459901265E-01
   5.284701945900033E-01   5.252537877589125E-01   5.218464475594639E-01
   5.182469633895962E-01   5.144541916436375E-01   5.104670552589856E-01
   5.062845431519269E-01   5.019057095465433E-01   4.973296732010470E-01
   4.925556165362830E-01   4.875827846714963E-01   4.824104843728155E-01
   4.770380829202266E-01   4.714650068991149E-01   4.656907409227297E-01
   4.597148262921747E-01   4.535368596007560E-01   4.471564912897094E-01
   4.405734241624964E-01   4.337874118651816E-01   4.267982573389835E-01
   4.196058100574984E-01   4.122099610338365E-01   4.046106436632305E-01
   3.968078382965246E-01   3.888015649147350E-01   3.805918839144832E-01
   3.721788940732804E-01   3.635627311610868E-01   3.547435665175425E-01
   3.457216056810523E-01   3.364970870718251E-01   3.270702807347938E-01
   3.174414871482535E-01   3.076110361037066E-01   2.975792856620495E-01
   2.873466211908723E-01   2.769134544872440E-01   2.662802229899541E-01
   2.554473890847475E-01   2.444154395056554E-01   2.331848848350682E-01
   2.217562591047298E-01   2.101301194993657E-01   1.983070461641692E-01
   1.862876421168920E-01   1.740725332647907E-01   1.616623685261995E-01
   1.490578200560055E-01   1.362595835738224E-01   1.232683787931760E-01
   1.100849499495487E-01   9.671006642466698E-02   8.314452346396028E-02
   6.938914298368526E-02   5.544477446378499E-02   4.131229592214628E-02
   2.699261496552900E-02   1.248666991207336E-02  -2.204569020056650E-03
  -1.708009846365971E-02  -3.213888059917983E-02  -4.737984180342583E-02
  -6.280187125691626E-02  -7.840381951665761E-02  -9.418449706135466E-02
  -1.101426728162122E-01  -1.262770726646167E-01  -1.425863779540842E-01
  -1.590692240039273E-01  -1.757241986221224E-01  -1.925498406388632E-01
  -2.095446384642424E-01  -2.267070286774411E-01  -2.440353946546939E-01
  -2.615280652431614E-01  -2.791833134876625E-01  -2.969993554170119E-01
  -3.149743488964574E-01  -3.331063925524325E-01  -3.513935247755225E-01
  -3.698337228071891E-01  -3.884249019154122E-01  -4.071649146639882E-01
  -4.260515502797642E-01  -4.450825341216051E-01  -4.642555272543621E-01
  -4.835681261305604E-01  -5.030178623819369E-01  -5.226022027223370E-01
  -5.423185489628367E-01  -5.621642381392714E-01  -5.821365427516507E-01
  -6.022326711141941E-01  -6.224497678139700E-01  -6.427849142753188E-01
  -6.632351294264349E-01  -6.837973704636372E-01  -7.044685337079957E-01
  -7.252454555481004E-01  -7.461249134618513E-01  -7.671036271092221E-01
  -7.881782594870151E-01  -8.093454181356626E-01  -8.306016563871589E-01
  -8.519434746422273E-01  -8.733673216638289E-01  -8.948695958731209E-01
  -9.164466466329623E-01  -9.380947755030572E-01  -9.598102374498093E-01
  -9.815892419929566E-01  -1.003427954270044E+00  -1.025322495998802E+00
  -1.047268946316495E+00  -1.069263342474368E+00  -1.091301680364302E+00
  -1.113379914853935E+00  -1.135493959905511E+00  -1.157639688452931E+00
  -1.179812932010534E+00  -1.202009479986432E+00  -1.224225078672366E+00
  -1.246455429881393E+00  -1.268696189204022E+00  -1.290942963852806E+00
  -1.313191310064857E+00  -1.335436730031276E+00  -1.357674668322070E+00
  -1.379900507774804E+00  -1.402109564815014E+00  -1.424297084176224E+00
  -1.446458232987372E+00  -1.468588094195520E+00  -1.490681659291835E+00
  -1.512733820309156E+00  -1.534739361059838E+00  -1.556692947583095E+00
  -1.578589117771761E+00  -1.600422270149177E+00  -1.622186651767914E+00
  -1.643876345203163E+00  -1.665485254614943E+00  -1.687007090854758E+00
  -1.708435355594017E+00  -1.729763324453418E+00  -1.750984029114559E+00
  -1.772090238397373E+00  -1.793074438289489E+00  -1.813928810916401E+00
  -1.834645212444366E+00  -1.855215149911202E+00  -1.875629756983745E+00
  -1.895879768644546E+00  -1.915955494814537E+00  -1.935846792922860E+00
  -1.955543039439795E+00  -1.975033100393900E+00  -1.994305300899884E+00
  -2.013347393729617E+00  -2.032146526964892E+00  -2.050689210777185E+00
  -2.068961283386680E+00  -2.086947876260332E+00  -2.104633378616637E+00
  -2.122001401313180E+00  -2.139034740201901E+00  -2.155715339046400E+00
  -2.172024252105482E+00  -2.187941606497589E+00  -2.203446564471726E+00
  -2.218517285722064E+00  -2.233130889895514E+00  -2.247263419454321E+00
  -2.260889803069078E+00  -2.273983819731534E+00  -2.286518063791204E+00
  -2.298463911135070E+00  -2.309791486745570E+00  -2.320469633888712E+00
  -2.330465885201390E+00  -2.339746435964928E+00  -2.348276119870480E+00
  -2.356018387601164E+00  -2.362935288575707E+00  -2.368987456218890E+00
  -2.374134097145205E+00  -2.378332984663790E+00  -2.381540457034902E+00
  -2.383711420930854E+00  -2.384799360577396E+00  -2.384756353074891E+00
  -2.383533090416124E+00  -2.381078908746461E+00  -2.377341825484064E+00
  -2.372268584847695E+00  -2.365804712324778E+00  -2.357894578946306E+00
  -2.348481475869368E+00  -2.337507699873655E+00  -2.324914650692250E+00
  -2.310642940749114E+00  -2.294632518101720E+00  -2.276822803308673E+00
  -2.257152841090843E+00  -2.235571978201474E+00  -2.212062814052902E+00
  -2.186596407056147E+00  -2.159084711590566E+00  -2.129472117001559E+00
  -2.097694158364817E+00  -2.063689092083838E+00  -2.027396611565164E+00
  -1.988758280778014E+00  -1.947717873378433E+00  -1.904221729911741E+00
  -1.858219138404151E+00  -1.809662738112578E+00  -1.758508946769544E+00
  -1.704718411804809E+00  -1.648256485563336E+00  -1.589093724594876E+00
  -1.527206412875285E+00  -1.462577108658187E+00  -1.395195214458797E+00
  -1.325057569453645E+00  -1.252169063337605E+00  -1.176543270411598E+00
  -1.098203102379301E+00  -1.017181478007813E+00  -9.335220074542753E-01
  -8.472796886767658E-01  -7.585216129325018E-01  -6.673276759186471E-01
  -5.737912906303348E-01  -4.780200974966218E-01  -3.801366668080842E-01
  -2.802791878701240E-01  -1.786021387047437E-01  -7.527692948205929E-02
   2.950748780673825E-02   1.355440516180710E-01   2.426070739658739E-01
   3.504517840058902E-01   4.588139424728196E-01   5.674095380991282E-01
   6.759345778920047E-01   7.840649838807405E-01   8.914566096602394E-01
   9.977453907352823E-01   1.102547643300808E+00   1.205460526660264E+00
   1.306062684969640E+00   1.403915084379662E+00   1.498562061911474E+00
   1.589532602518368E+00   1.676341860732204E+00   1.758492943040352E+00
   1.835478966657481E+00   1.906785409614748E+00   1.971892766053178E+00
   2.030279519243390E+00   2.081425443123799E+00   2.124815241016778E+00
   2.159942527609334E+00   2.186314157234042E+00   2.203454897920772E+00
   2.210912446575145E+00   2.208262775943665E+00   2.195115798719780E+00
   2.171121328206890E+00   2.135975308367215E+00   2.089426278841869E+00
   2.031282032630002E+00   1.961416415578521E+00   1.879776207688433E+00
   1.786388016536106E+00   1.681365102904161E+00   1.564914048106280E+00
   1.437341161586809E+00   1.299058516321721E+00   1.150589488514803E+00
   9.925736672777918E-01   8.257709896472474E-01   6.510649467035036E-01
   4.694646980368208E-01   2.821059247117319E-01   9.025024561168307E-02
  -1.047169809590372E-01  -3.012906488048942E-01  -4.978518639066531E-01
  -6.926760416661490E-01  -8.839432988589446E-01  -1.069751281808712E+00
  -1.248130550807906E+00  -1.417062613301455E+00  -1.574500664314535E+00
  -1.718393051591524E+00  -1.846709434555040E+00  -1.957469550239155E+00
  -2.048774435692991E+00  -2.118839885065797E+00  -2.166031840968328E+00
  -2.188903334316052E+00  -2.186232495559052E+00  -2.157061064200316E+00
  -2.100732724394726E+00  -2.016930494228661E+00  -1.905712297487010E+00
  -1.767543752287460E+00  -1.603327124366455E+00  -1.414425318000809E+00
  -1.202679718985877E+00  -9.704206666460132E-01  -7.204693207754993E-01
  -4.561297102179852E-01  -1.811698081441971E-01   1.002094194044264E-01
   3.834178951178095E-01   6.635339422067849E-01   9.353758656949888E-01
   1.193587721617488E+00   1.432739010184140E+00   1.647437585932393E+00
   1.832454577373855E+00   1.982859556739614E+00   2.094163606613127E+00
   2.162467307730458E+00   2.184610038352071E+00   2.158316352032532E+00
   2.082334613426835E+00   1.956562551393175E+00   1.782153969484480E+00
   1.561600573717379E+00   1.298782776397302E+00   9.989834539131742E-01
   6.688590161942748E-01   3.163628233858164E-01  -4.938300691134131E-02
  -4.182699975825458E-01  -7.794407856720060E-01  -1.121580457325734E+00
  -1.433258108527497E+00  -1.703312285822311E+00  -1.921271034325674E+00
  -2.077794238081743E+00  -2.165122911320045E+00  -2.177517249096783E+00
  -2.111662760484732E+00  -1.967021898266942E+00  -1.746107493192785E+00
  -1.454654230958870E+00  -1.101665600764635E+00  -6.993163952065623E-01
  -2.626951073357423E-01   1.906234600146974E-01   6.411773872464085E-01
   1.068381392554953E+00   1.451437317497910E+00   1.770361991724652E+00
   2.007091236605394E+00   2.146607237919950E+00   2.178026220915517E+00
   2.095575289129942E+00   1.899382503847804E+00   1.596003848654479E+00
   1.198615622622109E+00   7.268118247386893E-01   2.059637103998250E-01
  -3.338770366158731E-01  -8.595196747139177E-01  -1.336573105023293E+00
  -1.731696233669709E+00  -2.015035412464031E+00  -2.162688310107198E+00
  -2.159004205287991E+00  -1.998512193828478E+00  -1.687265284231158E+00
    </PP_AEWFC.4>
    <PP_PSWFC.1 size="1095" index="1" label="2S" l="0">
  -2.421670633501348E-04  -2.452131499497017E-04  -2.482975515992170E-04
  -2.514207502425750E-04  -2.545832338857747E-04  -2.577854966731700E-04
  -2.610280389646817E-04  -2.643113674139792E-04  -2.676359950476454E-04
  -2.710024413453391E-04  -2.744112323209635E-04  -2.778629006048569E-04
  -2.813579855270172E-04  -2.848970332013726E-04  -2.884805966111142E-04
  -2.921092356950981E-04  -2.957835174353383E-04  -2.995040159455984E-04
  -3.032713125610968E-04  -3.070859959293426E-04  -3.109486621021112E-04
  -3.148599146285790E-04  -3.188203646496285E-04  -3.228306309933398E-04
  -3.268913402716846E-04  -3.310031269784332E-04  -3.351666335882960E-04
  -3.393825106573113E-04  -3.436514169244948E-04  -3.479740194147694E-04
  -3.523509935431875E-04  -3.567830232204665E-04  -3.612708009598496E-04
  -3.658150279853128E-04  -3.704164143411319E-04  -3.750756790028271E-04
  -3.797935499895040E-04  -3.845707644776077E-04  -3.894080689161068E-04
  -3.943062191431282E-04  -3.992659805040558E-04  -4.042881279711176E-04
  -4.093734462644756E-04  -4.145227299748385E-04  -4.197367836876197E-04
  -4.250164221086506E-04  -4.303624701914822E-04  -4.357757632662834E-04
  -4.412571471703623E-04  -4.468074783803299E-04  -4.524276241459231E-04
  -4.581184626255151E-04  -4.638808830233272E-04  -4.697157857283675E-04
  -4.756240824551189E-04  -4.816066963859925E-04  -4.876645623155769E-04
  -4.937986267966999E-04  -5.000098482883278E-04  -5.062991973053264E-04
  -5.126676565701013E-04  -5.191162211661519E-04  -5.256458986935511E-04
  -5.322577094263840E-04  -5.389526864721672E-04  -5.457318759332695E-04
  -5.525963370703675E-04  -5.595471424679542E-04  -5.665853782019304E-04
  -5.737121440093056E-04  -5.809285534600291E-04  -5.882357341309878E-04
  -5.956348277821876E-04  -6.031269905351542E-04  -6.107133930535790E-04
  -6.183952207262299E-04  -6.261736738521725E-04  -6.340499678283131E-04
  -6.420253333393054E-04  -6.501010165498454E-04  -6.582782792993803E-04
  -6.665583992992732E-04  -6.749426703324428E-04  -6.834324024555161E-04
  -6.920289222035250E-04  -7.007335727971738E-04  -7.095477143527168E-04
  -7.184727240944755E-04  -7.275099965700268E-04  -7.366609438681019E-04
  -7.459269958392197E-04  -7.553096003191004E-04  -7.648102233548883E-04
  -7.744303494342166E-04  -7.841714817171608E-04  -7.940351422710986E-04
  -8.040228723085337E-04  -8.141362324279063E-04  -8.243768028574317E-04
  -8.347461837020116E-04  -8.452459951932405E-04  -8.558778779425675E-04
  -8.666434931976348E-04  -8.775445231018444E-04  -8.885826709571896E-04
  -8.997596614903870E-04  -9.110772411223627E-04  -9.225371782411231E-04
  -9.341412634780606E-04  -9.458913099877348E-04  -9.577891537311677E-04
  -9.698366537627073E-04  -9.820356925204984E-04  -9.943881761206043E-04
  -1.006896034654832E-03  -1.019561222492295E-03  -1.032385718584781E-03
  -1.045371526775949E-03  -1.058520676114421E-03  -1.071835221170813E-03
  -1.085317242358747E-03  -1.098968846259907E-03  -1.112792165953178E-03
  -1.126789361347929E-03  -1.140962619521487E-03  -1.155314155060850E-03
  -1.169846210408703E-03  -1.184561056213790E-03  -1.199460991685677E-03
  -1.214548344953999E-03  -1.229825473432202E-03  -1.245294764185879E-03
  -1.260958634305724E-03  -1.276819531285188E-03  -1.292879933402877E-03
  -1.309142350109762E-03  -1.325609322421255E-03  -1.342283423314227E-03
  -1.359167258129002E-03  -1.376263464976425E-03  -1.393574715150033E-03
  -1.411103713543420E-03  -1.428853199072849E-03  -1.446825945105173E-03
  -1.465024759891149E-03  -1.483452487004189E-03  -1.502112005784634E-03
  -1.521006231789620E-03  -1.540138117248588E-03  -1.559510651524546E-03
  -1.579126861581098E-03  -1.598989812455381E-03  -1.619102607736921E-03
  -1.639468390052533E-03  -1.660090341557304E-03  -1.680971684431755E-03
  -1.702115681385255E-03  -1.723525636165767E-03  -1.745204894076003E-03
  -1.767156842496069E-03  -1.789384911412680E-03  -1.811892573955036E-03
  -1.834683346937428E-03  -1.857760791408676E-03  -1.881128513208475E-03
  -1.904790163530716E-03  -1.928749439493934E-03  -1.953010084718882E-03
  -1.977575889913391E-03  -2.002450693464598E-03  -2.027638382038572E-03
  -2.053142891187546E-03  -2.078968205964726E-03  -2.105118361546857E-03
  -2.131597443864628E-03  -2.158409590240962E-03  -2.185558990037386E-03
  -2.213049885308481E-03  -2.240886571464584E-03  -2.269073397942823E-03
  -2.297614768886565E-03  -2.326515143833449E-03  -2.355779038412023E-03
  -2.385411025047165E-03  -2.415415733674381E-03  -2.445797852463039E-03
  -2.476562128548763E-03  -2.507713368774969E-03  -2.539256440443762E-03
  -2.571196272076264E-03  -2.603537854182482E-03  -2.636286240040894E-03
  -2.669446546487786E-03  -2.703023954716547E-03  -2.737023711087004E-03
  -2.771451127944904E-03  -2.806311584451751E-03  -2.841610527425008E-03
  -2.877353472188908E-03  -2.913546003435954E-03  -2.950193776099201E-03
  -2.987302516235579E-03  -3.024878021920241E-03  -3.062926164152202E-03
  -3.101452887771345E-03  -3.140464212386927E-03  -3.179966233317808E-03
  -3.219965122544438E-03  -3.260467129672839E-03  -3.301478582910712E-03
  -3.343005890055751E-03  -3.385055539496467E-03  -3.427634101225497E-03
  -3.470748227865706E-03  -3.514404655709159E-03  -3.558610205769133E-03
  -3.603371784845392E-03  -3.648696386602785E-03  -3.694591092663442E-03
  -3.741063073712682E-03  -3.788119590618772E-03  -3.835767995566835E-03
  -3.884015733206913E-03  -3.932870341816507E-03  -3.982339454477716E-03
  -4.032430800269106E-03  -4.083152205472653E-03  -4.134511594795729E-03
  -4.186516992608505E-03  -4.239176524196900E-03  -4.292498417031192E-03
  -4.346491002050663E-03  -4.401162714964277E-03  -4.456522097567751E-03
  -4.512577799077154E-03  -4.569338577479205E-03  -4.626813300898605E-03
  -4.685010948982445E-03  -4.743940614302057E-03  -4.803611503772444E-03
  -4.864032940089490E-03  -4.925214363185288E-03  -4.987165331701645E-03
  -5.049895524482140E-03  -5.113414742082887E-03  -5.177732908302240E-03
  -5.242860071729731E-03  -5.308806407314392E-03  -5.375582217952790E-03
  -5.443197936096985E-03  -5.511664125382626E-03  -5.580991482277507E-03
  -5.651190837750775E-03  -5.722273158963077E-03  -5.794249550977924E-03
  -5.867131258494475E-03  -5.940929667602091E-03  -6.015656307556851E-03
  -6.091322852580363E-03  -6.167941123681128E-03  -6.245523090498697E-03
  -6.324080873170999E-03  -6.403626744225014E-03  -6.484173130491178E-03
  -6.565732615041766E-03  -6.648317939153542E-03  -6.731942004295030E-03
  -6.816617874138642E-03  -6.902358776598030E-03  -6.989178105890956E-03
  -7.077089424627970E-03  -7.166106465927274E-03  -7.256243135556023E-03
  -7.347513514098465E-03  -7.439931859151203E-03  -7.533512607545917E-03
  -7.628270377599939E-03  -7.724219971394931E-03  -7.821376377084108E-03
  -7.919754771228324E-03  -8.019370521161331E-03  -8.120239187384665E-03
  -8.222376525992428E-03  -8.325798491126418E-03  -8.430521237461934E-03
  -8.536561122724613E-03  -8.643934710238778E-03  -8.752658771507547E-03
  -8.862750288825225E-03  -8.974226457922299E-03  -9.087104690643440E-03
  -9.201402617658973E-03  -9.317138091210139E-03  -9.434329187888658E-03
  -9.552994211450961E-03  -9.673151695667485E-03  -9.794820407207557E-03
  -9.918019348560196E-03  -1.004276776099136E-02  -1.016908512753804E-02
  -1.029699117603961E-02  -1.042650588220702E-02  -1.055764947273011E-02
  -1.069044242842372E-02  -1.082490548741287E-02  -1.096105964835759E-02
  -1.109892617371790E-02  -1.123852659305936E-02  -1.137988270639975E-02
  -1.152301658759728E-02  -1.166795058778099E-02  -1.181470733882366E-02
  -1.196330975685795E-02  -1.211378104583607E-02  -1.226614470113373E-02
  -1.242042451319870E-02  -1.257664457124469E-02  -1.273482926699096E-02
  -1.289500329844830E-02  -1.305719167375188E-02  -1.322141971504159E-02
  -1.338771306239036E-02  -1.355609767778107E-02  -1.372659984913273E-02
  -1.389924619437626E-02  -1.407406366558083E-02  -1.425107955313096E-02
  -1.443032148995527E-02  -1.461181745580744E-02  -1.479559578159984E-02
  -1.498168515379072E-02  -1.517011461882530E-02  -1.536091358763158E-02
  -1.555411184017153E-02  -1.574973953004816E-02  -1.594782718916932E-02
  -1.614840573246860E-02  -1.635150646268439E-02  -1.655716107519745E-02
  -1.676540166292776E-02  -1.697626072129152E-02  -1.718977115321862E-02
  -1.740596627423164E-02  -1.762487981758695E-02  -1.784654593947848E-02
  -1.807099922430527E-02  -1.829827469000293E-02  -1.852840779344036E-02
  -1.876143443588207E-02  -1.899739096851697E-02  -1.923631419805446E-02
  -1.947824139238827E-02  -1.972321028632930E-02  -1.997125908740780E-02
  -2.022242648174587E-02  -2.047675164000102E-02  -2.073427422338153E-02
  -2.099503438973454E-02  -2.125907279970744E-02  -2.152643062298363E-02
  -2.179714954459329E-02  -2.207127177129986E-02  -2.234884003806349E-02
  -2.262989761458170E-02  -2.291448831190857E-02  -2.320265648915309E-02
  -2.349444706025734E-02  -2.378990550085576E-02  -2.408907785521597E-02
  -2.439201074326220E-02  -2.469875136768220E-02  -2.500934752111818E-02
  -2.532384759344328E-02  -2.564230057912365E-02  -2.596475608466766E-02
  -2.629126433616286E-02  -2.662187618690139E-02  -2.695664312509508E-02
  -2.729561728168083E-02  -2.763885143821734E-02  -2.798639903487400E-02
  -2.833831417851271E-02  -2.869465165086376E-02  -2.905546691679647E-02
  -2.942081613268553E-02  -2.979075615487395E-02  -3.016534454823356E-02
  -3.054463959482360E-02  -3.092870030264891E-02  -3.131758641451796E-02
  -3.171135841700203E-02  -3.211007754949625E-02  -3.251380581338326E-02
  -3.292260598130056E-02  -3.333654160651237E-02  -3.375567703238663E-02
  -3.418007740197846E-02  -3.460980866772022E-02  -3.504493760121968E-02
  -3.548553180316676E-02  -3.593165971334969E-02  -3.638339062078152E-02
  -3.684079467393747E-02  -3.730394289110431E-02  -3.777290717084218E-02
  -3.824776030255980E-02  -3.872857597720378E-02  -3.921542879806240E-02
  -3.970839429168525E-02  -4.020754891891874E-02  -4.071297008605838E-02
  -4.122473615611867E-02  -4.174292646022077E-02  -4.226762130909888E-02
  -4.279890200472575E-02  -4.333685085205783E-02  -4.388155117090077E-02
  -4.443308730789518E-02  -4.499154464862373E-02  -4.555700962983968E-02
  -4.612956975181706E-02  -4.670931359082316E-02  -4.729633081171318E-02
  -4.789071218064767E-02  -4.849254957793265E-02  -4.910193601098270E-02
  -4.971896562740719E-02  -5.034373372821913E-02  -5.097633678116741E-02
  -5.161687243419179E-02  -5.226543952900053E-02  -5.292213811477081E-02
  -5.358706946197094E-02  -5.426033607630478E-02  -5.494204171277743E-02
  -5.563229138988176E-02  -5.633119140390547E-02  -5.703884934335718E-02
  -5.775537410351190E-02  -5.848087590107406E-02  -5.921546628895750E-02
  -5.995925817118149E-02  -6.071236581788092E-02  -6.147490488043027E-02
  -6.224699240667911E-02  -6.302874685629800E-02  -6.382028811623322E-02
  -6.462173751626764E-02  -6.543321784468700E-02  -6.625485336404852E-02
  -6.708676982704986E-02  -6.792909449249630E-02  -6.878195614136262E-02
  -6.964548509294802E-02  -7.051981322112026E-02  -7.140507397064622E-02
  -7.230140237360547E-02  -7.320893506588290E-02  -7.412781030373719E-02
  -7.505816798044071E-02  -7.600014964298651E-02  -7.695389850885838E-02
  -7.791955948285813E-02  -7.889727917398656E-02  -7.988720591237133E-02
  -8.088948976623703E-02  -8.190428255891136E-02  -8.293173788586052E-02
  -8.397201113174829E-02  -8.502525948751116E-02  -8.609164196744234E-02
  -8.717131942627744E-02  -8.826445457627288E-02  -8.937121200426966E-02
  -9.049175818873301E-02  -9.162626151675866E-02  -9.277489230103667E-02
  -9.393782279676097E-02  -9.511522721847621E-02  -9.630728175684902E-02
  -9.751416459535228E-02  -9.873605592685107E-02  -9.997313797007579E-02
  -1.012255949859706E-01  -1.024936132939027E-01  -1.037773812877169E-01
  -1.050770894516214E-01  -1.063929303758882E-01  -1.077250987723508E-01
  -1.090737914896833E-01  -1.104392075284405E-01  -1.118215480558428E-01
  -1.132210164202818E-01  -1.146378181655313E-01  -1.160721610446371E-01
  -1.175242550334658E-01  -1.189943123438891E-01  -1.204825474365771E-01
  -1.219891770333777E-01  -1.235144201292528E-01  -1.250584980037462E-01
  -1.266216342319528E-01  -1.282040546949582E-01  -1.298059875897193E-01
  -1.314276634383531E-01  -1.330693150967976E-01  -1.347311777628123E-01
  -1.364134889832790E-01  -1.381164886607673E-01  -1.398404190593225E-01
  -1.415855248094359E-01  -1.433520529121552E-01  -1.451402527422879E-01
  -1.469503760506533E-01  -1.487826769653348E-01  -1.506374119918800E-01
  -1.525148400124005E-01  -1.544152222835119E-01  -1.563388224330625E-01
  -1.582859064555898E-01  -1.602567427064440E-01  -1.622516018945169E-01
  -1.642707570735087E-01  -1.663144836316665E-01  -1.683830592799231E-01
  -1.704767640383633E-01  -1.725958802209416E-01  -1.747406924183714E-01
  -1.769114874791069E-01  -1.791085544883294E-01  -1.813321847448527E-01
  -1.835826717358556E-01  -1.858603111093464E-01  -1.881654006442624E-01
  -1.904982402181028E-01  -1.928591317719893E-01  -1.952483792730465E-01
  -1.976662886739871E-01  -2.001131678697882E-01  -2.025893266513344E-01
  -2.050950766559054E-01  -2.076307313143761E-01  -2.101966057949953E-01
  -2.127930169436053E-01  -2.154202832201576E-01  -2.180787246313758E-01
  -2.207686626594132E-01  -2.234904201863437E-01  -2.262443214143243E-01
  -2.290306917812567E-01  -2.318498578717741E-01  -2.347021473233716E-01
  -2.375878887274895E-01  -2.405074115253612E-01  -2.434610458984209E-01
  -2.464491226530666E-01  -2.494719730995661E-01  -2.525299289248828E-01
  -2.556233220591981E-01  -2.587524845358942E-01  -2.619177483447556E-01
  -2.651194452781429E-01  -2.683579067698780E-01  -2.716334637265814E-01
  -2.749464463511868E-01  -2.782971839583516E-01  -2.816860047814795E-01
  -2.851132357710506E-01  -2.885792023839620E-01  -2.920842283635592E-01
  -2.956286355100376E-01  -2.992127434408822E-01  -3.028368693410025E-01
  -3.065013277022174E-01  -3.102064300517260E-01  -3.139524846691980E-01
  -3.177397962921071E-01  -3.215686658089161E-01  -3.254393899397218E-01
  -3.293522609039489E-01  -3.333075660746805E-01  -3.373055876191986E-01
  -3.413466021252971E-01  -3.454308802129283E-01  -3.495586861307257E-01
  -3.537302773369402E-01  -3.579459040643219E-01  -3.622058088684600E-01
  -3.665102261590985E-01  -3.708593817139271E-01  -3.752534921743400E-01
  -3.796927645226535E-01  -3.841773955402563E-01  -3.887075712461702E-01
  -3.932834663154842E-01  -3.979052434771241E-01  -4.025730528904122E-01
  -4.072870314998666E-01  -4.120473023676917E-01  -4.168539739834003E-01
  -4.217071395500130E-01  -4.266068762462771E-01  -4.315532444643446E-01
  -4.365462870223589E-01  -4.415860283513960E-01  -4.466724736562097E-01
  -4.518056080492457E-01  -4.569853956573834E-01  -4.622117787008901E-01
  -4.674846765440714E-01  -4.728039847171209E-01  -4.781695739086930E-01
  -4.835812889287298E-01  -4.890389476411113E-01  -4.945423398657089E-01
  -5.000912262494578E-01  -5.056853371060936E-01  -5.113243712242317E-01
  -5.170079946435113E-01  -5.227358393985636E-01  -5.285075022306159E-01
  -5.343225432665936E-01  -5.401804846656347E-01  -5.460808092330061E-01
  -5.520229590014621E-01  -5.580063337801766E-01  -5.640302896714469E-01
  -5.700941375554583E-01  -5.761971415435004E-01  -5.823385174001124E-01
  -5.885174309347565E-01  -5.947329963637296E-01  -6.009842746431460E-01
  -6.072702717739712E-01  -6.135899370802153E-01  -6.199421614615592E-01
  -6.263257756218510E-01  -6.327395482750752E-01  -6.391821843306020E-01
  -6.456523230597042E-01  -6.521485362455516E-01  -6.586693263191151E-01
  -6.652131244836373E-01  -6.717782888306061E-01  -6.783631024503907E-01
  -6.849657715410148E-01  -6.915844235188245E-01  -6.982171051350980E-01
  -7.048617806030112E-01  -7.115163297396672E-01  -7.181785461282868E-01
  -7.248461353060321E-01  -7.315167129832896E-01  -7.381878033007027E-01
  -7.448568371306152E-01  -7.515211504300546E-01  -7.581779826528510E-01
  -7.648244752289222E-01  -7.714576701192976E-01  -7.780745084559058E-01
  -7.846718292757066E-01  -7.912463683592748E-01  -7.977947571844616E-01
  -8.043135220063641E-01  -8.107990830753474E-01  -8.172477540054749E-01
  -8.236557413062756E-01  -8.300191440913351E-01  -8.363339539778260E-01
  -8.425960551916214E-01  -8.488012248932552E-01  -8.549451337405383E-01
  -8.610233467041726E-01  -8.670313241532829E-01  -8.729644232282306E-01
  -8.788178995185979E-01  -8.845869090646494E-01  -8.902665107009460E-01
  -8.958516687611756E-01  -9.013372561634756E-01  -9.067180578957794E-01
  -9.119887749208118E-01  -9.171440285203768E-01  -9.221783650985327E-01
  -9.270862614630110E-01  -9.318621306039246E-01  -9.365003279883276E-01
  -9.409951583885150E-01  -9.453408832611552E-01  -9.495317286932686E-01
  -9.535618939298433E-01  -9.574255604963620E-01  -9.611169019277379E-01
  -9.646300941131354E-01  -9.679593262637366E-01  -9.710988125078547E-01
  -9.740428041147005E-01  -9.767856023446471E-01  -9.793215719199739E-01
  -9.816451551057281E-01  -9.837508863855440E-01  -9.856334077119615E-01
  -9.872874843049229E-01  -9.887080209657473E-01  -9.898900788668671E-01
  -9.908288927700165E-01  -9.915198886173026E-01  -9.919587014306791E-01
  -9.921411934457469E-01  -9.920634723955054E-01  -9.917219098486767E-01
  -9.911131594954964E-01  -9.902341752614220E-01  -9.890822291160583E-01
  -9.876549284307430E-01  -9.859502327237176E-01  -9.839664696166488E-01
  -9.817023498105154E-01  -9.791569808726092E-01  -9.763298796096790E-01
  -9.732209827851854E-01  -9.698306559213151E-01  -9.661596999090413E-01
  -9.622093551321608E-01  -9.579813027941910E-01  -9.534776631204163E-01
  -9.487009900914939E-01  -9.436542623502194E-01  -9.383408699094710E-01
  -9.327645962775886E-01  -9.269295956076604E-01  -9.208403644699988E-01
  -9.145017078429359E-01  -9.079186989164130E-01  -9.010966323064089E-01
  -8.940409702865338E-01  -8.867572816568996E-01  -8.792511728903413E-01
  -8.715282112229878E-01  -8.635938393909233E-01  -8.554532817580545E-01
  -8.471114416332093E-01  -8.385727896379689E-01  -8.298412430614883E-01
  -8.209200362258600E-01  -8.118115819860621E-01  -8.025173246033471E-01
  -7.930375843608943E-01  -7.833713944364007E-01  -7.735184259581885E-01
  -7.634857095705231E-01  -7.532823171554777E-01  -7.429173995560650E-01
  -7.324001749347377E-01  -7.217399171370446E-01  -7.109459440816874E-01
  -7.000276061805683E-01  -6.889942748313447E-01  -6.778553309765483E-01
  -6.666201537552062E-01  -6.552981092608171E-01  -6.438985394206758E-01
  -6.324307510109970E-01  -6.209040048217519E-01  -6.093275049846030E-01
  -5.977103884768131E-01  -5.860617148134794E-01  -5.743904559399714E-01
  -5.627054863359878E-01  -5.510155733421817E-01  -5.393293677198732E-01
  -5.276553944539562E-01  -5.160020438087113E-01  -5.043775626458646E-01
  -4.927900460138783E-01  -4.812474290171187E-01  -4.697574789732352E-01
  -4.583277878667726E-01  -4.469657651067575E-01  -4.356786305957097E-01
  -4.244734081172757E-01  -4.133569190494033E-01  -4.023357764097277E-01
  -3.914163792395789E-01  -3.806049073327590E-01  -3.699073163149741E-01
  -3.593293330795340E-01  -3.488764515846448E-01  -3.385539290173253E-01
  -3.283667823286561E-01  -3.183197851447417E-01  -3.084174650573973E-01
  -2.986641012981935E-01  -2.890637227990788E-01  -2.796201066423522E-01
  -2.703367769022889E-01  -2.612170038802126E-01  -2.522638037342635E-01
  -2.434799385045388E-01  -2.348679165336633E-01  -2.264299932822071E-01
  -2.181681725376763E-01  -2.100842080150913E-01  -2.021796053464118E-01
  -1.944556244552900E-01  -1.869132823128166E-01  -1.795533560690922E-01
  -1.723763865545899E-01  -1.653826821443948E-01  -1.585723229775053E-01
  -1.519451655224704E-01  -1.455008474797152E-01  -1.392387930099819E-01
  -1.331582182773930E-01  -1.272581372947222E-01  -1.215373680575566E-01
  -1.159945389531439E-01  -1.106280954288523E-01  -1.054363069043363E-01
  -1.004172739106958E-01  -9.556893543915382E-02  -9.088907648106387E-02
  -8.637533574038557E-02  -8.202521349916302E-02  -7.783607961598751E-02
  -7.380518163694580E-02  -6.992965299814249E-02  -6.620652129854881E-02
  -6.263271662167146E-02  -5.920507988435956E-02  -5.592037119097643E-02
  -5.277527817115912E-02  -4.976642427947359E-02  -4.689037703544961E-02
  -4.414365618274516E-02  -4.152274174654898E-02  -3.902408196877705E-02
  -3.664410110115743E-02  -3.437920703692263E-02  -3.222579876253966E-02
  -3.018027361170055E-02  -2.823903430466736E-02  -2.639849575701225E-02
  -2.465509164280772E-02  -2.300528069840309E-02  -2.144555275406118E-02
  -1.997243448192080E-02  -1.858249484998712E-02  -1.727235027312819E-02
  -1.603866945336308E-02  -1.487817790305862E-02  -1.378766214599955E-02
  -1.276397359265322E-02  -1.180403208730682E-02  -1.090482912610441E-02
  -1.006343074634581E-02  -9.276980088719794E-03  -8.542699635425591E-03
  -7.857893128378745E-03  -7.219947172895631E-03  -6.626332533397086E-03
  -6.074605128760084E-03  -5.562406735971358E-03  -5.087465411692960E-03
  -4.647595642232405E-03  -4.240698233215034E-03  -3.864759950980225E-03
  -3.517852928363117E-03  -3.198133848077487E-03  -2.903842917381892E-03
  -2.633302648089216E-03  -2.384916456269392E-03  -2.157167096196645E-03
  -1.948614943207527E-03  -1.757896140165921E-03  -1.583720622178649E-03
  -1.424870034073273E-03  -1.280195554941688E-03  -1.148615643773133E-03
  -1.029113719852936E-03  -9.207357911932752E-04  -8.225880437949105E-04
  -7.338344040195642E-04  -6.536940857871667E-04  -5.814391337063861E-04
  -5.163919726067172E-04  -4.579229732719268E-04  -4.054480434838662E-04
  -3.584262527784951E-04  -3.163574985982613E-04  -2.787802208023803E-04
  -2.452691707745225E-04  -2.154332406510985E-04  -1.889133574876317E-04
  -1.653804464901597E-04  -1.445334667674079E-04  -1.260975224114188E-04
  -1.098220510928112E-04  -9.547909176484614E-05  -8.286163251056777E-05
  -7.178203904156788E-05  -6.207056386711326E-05  -5.357393569973928E-05
  -4.615402824882696E-05  -3.968660717761535E-05  -3.406015366165638E-05
  -2.917476268765075E-05  -2.494111397022482E-05  -2.127951314017404E-05
  -1.811900066787398E-05  -1.539652583330338E-05  -1.305618293074254E-05
  -1.104850680499874E-05  -9.329824756782453E-06  -7.861661817805338E-06
  -6.610196386208269E-06  -5.545763228470206E-06  -4.642400867621797E-06
  -3.877440641945205E-06  -3.231132703797863E-06  -2.686319202625810E-06
  -2.228095559076983E-06  -1.843615999205140E-06  -1.521799242674051E-06
  -1.253074885413946E-06  -1.029215151200937E-06  -8.431715541610183E-07
  -6.889201917257079E-07  -5.613248525881024E-07  -4.560161626890369E-07
  -3.692851114776920E-07  -2.979894144219271E-07  -2.394712587499441E-07
  -1.914851611150250E-07  -1.521341854471188E-07  -1.198160951388593E-07
  -9.316539151027600E-08  -7.113875746369345E-08  -5.218505170927728E-08
   0.000000000000000E+00   0.000000000000000E+00   0.000000000000000E+00
   0.000000000000000E+00   0.000000000000000E+00   0.000000000000000E+00
   0.000000000000000E+00   0.000000000000000E+00   0.000000000000000E+00
   0.000000000000000E+00   0.000000000000000E+00   0.000000000000000E+00
   0.000000000000000E+00   0.000000000000000E+00   0.000000000000000E+00
   0.000000000000000E+00   0.000000000000000E+00   0.000000000000000E+00
   0.000000000000000E+00   0.000000000000000E+00   0.000000000000000E+00
   0.000000000000000E+00   0.000000000000000E+00   0.000000000000000E+00
   0.000000000000000E+00   0.000000000000000E+00   0.000000000000000E+00
   0.000000000000000E+00   0.000000000000000E+00   0.000000000000000E+00
   0.000000000000000E+00   0.000000000000000E+00   0.000000000000000E+00
   0.000000000000000E+00   0.000000000000000E+00   0.000000000000000E+00
   0.000000000000000E+00   0.000000000000000E+00   0.000000000000000E+00
   0.000000000000000E+00   0.000000000000000E+00   0.000000000000000E+00
   0.000000000000000E+00   0.000000000000000E+00   0.000000000000000E+00
   0.000000000000000E+00   0.000000000000000E+00   0.000000000000000E+00
   0.000000000000000E+00   0.000000000000000E+00   0.000000000000000E+00
   0.000000000000000E+00   0.000000000000000E+00   0.000000000000000E+00
   0.000000000000000E+00   0.000000000000000E+00   0.000000000000000E+00
   0.000000000000000E+00   0.000000000000000E+00   0.000000000000000E+00
   0.000000000000000E+00   0.000000000000000E+00   0.000000000000000E+00
   0.000000000000000E+00   0.000000000000000E+00   0.000000000000000E+00
   0.000000000000000E+00   0.000000000000000E+00   0.000000000000000E+00
   0.000000000000000E+00   0.000000000000000E+00   0.000000000000000E+00
   0.000000000000000E+00   0.000000000000000E+00   0.000000000000000E+00
   0.000000000000000E+00   0.000000000000000E+00   0.000000000000000E+00
   0.000000000000000E+00   0.000000000000000E+00   0.000000000000000E+00
   0.000000000000000E+00   0.000000000000000E+00   0.000000000000000E+00
   0.000000000000000E+00   0.000000000000000E+00   0.000000000000000E+00
   0.000000000000000E+00   0.000000000000000E+00   0.000000000000000E+00
   0.000000000000000E+00   0.000000000000000E+00   0.000000000000000E+00
   0.000000000000000E+00   0.000000000000000E+00   0.000000000000000E+00
   0.000000000000000E+00   0.000000000000000E+00   0.000000000000000E+00
   0.000000000000000E+00   0.000000000000000E+00   0.000000000000000E+00
   0.000000000000000E+00   0.000000000000000E+00   0.000000000000000E+00
   0.000000000000000E+00   0.000000000000000E+00   0.000000000000000E+00
   0.000000000000000E+00   0.000000000000000E+00   0.000000000000000E+00
   0.000000000000000E+00   0.000000000000000E+00   0.000000000000000E+00
   0.000000000000000E+00   0.000000000000000E+00   0.000000000000000E+00
   0.000000000000000E+00   0.000000000000000E+00   0.000000000000000E+00
   0.000000000000000E+00   0.000000000000000E+00   0.000000000000000E+00
   0.000000000000000E+00   0.000000000000000E+00   0.000000000000000E+00
   0.000000000000000E+00   0.000000000000000E+00   0.000000000000000E+00
   0.000000000000000E+00   0.000000000000000E+00   0.000000000000000E+00
   0.000000000000000E+00   0.000000000000000E+00   0.000000000000000E+00
   0.000000000000000E+00   0.000000000000000E+00   0.000000000000000E+00
   0.000000000000000E+00   0.000000000000000E+00   0.000000000000000E+00
   0.000000000000000E+00   0.000000000000000E+00   0.000000000000000E+00
   0.000000000000000E+00   0.000000000000000E+00   0.000000000000000E+00
   0.000000000000000E+00   0.000000000000000E+00   0.000000000000000E+00
   0.000000000000000E+00   0.000000000000000E+00   0.000000000000000E+00
   0.000000000000000E+00   0.000000000000000E+00   0.000000000000000E+00
    </PP_PSWFC.1>
    <PP_PSWFC.2 size="1095" index="2" label="2S" l="0">
  -2.111875926714975E-04  -2.138440054887534E-04  -2.165338318627258E-04
  -2.192574920840974E-04  -2.220154117301521E-04  -2.248080217312722E-04
  -2.276357584382719E-04  -2.304990636905779E-04  -2.333983848852671E-04
  -2.363341750469737E-04  -2.393068928986740E-04  -2.423170029333634E-04
  -2.453649754866333E-04  -2.484512868101621E-04  -2.515764191461306E-04
  -2.547408608025720E-04  -2.579451062296712E-04  -2.611896560970235E-04
  -2.644750173718639E-04  -2.678017033982833E-04  -2.711702339774368E-04
  -2.745811354487648E-04  -2.780349407722337E-04  -2.815321896116114E-04
  -2.850734284187911E-04  -2.886592105191737E-04  -2.922900961981266E-04
  -2.959666527885288E-04  -2.996894547594162E-04  -3.034590838057451E-04
  -3.072761289392800E-04  -3.111411865806293E-04  -3.150548606524359E-04
  -3.190177626737398E-04  -3.230305118555307E-04  -3.270937351974979E-04
  -3.312080675860006E-04  -3.353741518932695E-04  -3.395926390778556E-04
  -3.438641882863441E-04  -3.481894669563449E-04  -3.525691509207810E-04
  -3.570039245134880E-04  -3.614944806761409E-04  -3.660415210665287E-04
  -3.706457561681856E-04  -3.753079054014070E-04  -3.800286972356580E-04
  -3.848088693033974E-04  -3.896491685153337E-04  -3.945503511771288E-04
  -3.995131831075719E-04  -4.045384397582386E-04  -4.096269063346553E-04
  -4.147793779189885E-04  -4.199966595942753E-04  -4.252795665702177E-04
  -4.306289243105605E-04  -4.360455686620680E-04  -4.415303459851275E-04
  -4.470841132859902E-04  -4.527077383506801E-04  -4.584020998805848E-04
  -4.641680876297519E-04  -4.700066025439143E-04  -4.759185569012602E-04
  -4.819048744549781E-04  -4.879664905775915E-04  -4.941043524071105E-04
  -5.003194189950230E-04  -5.066126614561430E-04  -5.129850631203486E-04
  -5.194376196862253E-04  -5.259713393766434E-04  -5.325872430962923E-04
  -5.392863645911946E-04  -5.460697506102280E-04  -5.529384610686786E-04
  -5.598935692138509E-04  -5.669361617927624E-04  -5.740673392219443E-04
  -5.812882157593803E-04  -5.885999196786084E-04  -5.960035934450098E-04
  -6.035003938943198E-04  -6.110914924133776E-04  -6.187780751231547E-04
  -6.265613430640844E-04  -6.344425123837191E-04  -6.424228145267539E-04
  -6.505034964274333E-04  -6.586858207043826E-04  -6.669710658578888E-04
  -6.753605264696618E-04  -6.838555134051103E-04  -6.924573540181586E-04
  -7.011673923586416E-04  -7.099869893823083E-04  -7.189175231634658E-04
  -7.279603891103004E-04  -7.371170001829006E-04  -7.463887871140298E-04
  -7.557771986326708E-04  -7.652837016903828E-04  -7.749097816905095E-04
  -7.846569427202613E-04  -7.945267077857248E-04  -8.045206190498239E-04
  -8.146402380732749E-04  -8.248871460585732E-04  -8.352629440970448E-04
  -8.457692534190091E-04  -8.564077156470861E-04  -8.671799930526898E-04
  -8.780877688157494E-04  -8.891327472876909E-04  -9.003166542577341E-04
  -9.116412372225330E-04  -9.231082656592098E-04  -9.347195313018250E-04
  -9.464768484213171E-04  -9.583820541089718E-04  -9.704370085634501E-04
  -9.826435953814302E-04  -9.950037218519035E-04  -1.007519319254168E-03
  -1.020192343159574E-03  -1.033024773737067E-03  -1.046018616062564E-03
  -1.059175900432230E-03  -1.072498682679687E-03  -1.085989044497219E-03
  -1.099649093761012E-03  -1.113480964860484E-03  -1.127486819031761E-03
  -1.141668844695342E-03  -1.156029257798010E-03  -1.170570302159049E-03
  -1.185294249820807E-03  -1.200203401403679E-03  -1.215300086465536E-03
  -1.230586663865692E-03  -1.246065522133437E-03  -1.261739079841210E-03
  -1.277609785982464E-03  -1.293680120354278E-03  -1.309952593944784E-03
  -1.326429749325471E-03  -1.343114161048408E-03  -1.360008436048481E-03
  -1.377115214050672E-03  -1.394437167982463E-03  -1.411977004391434E-03
  -1.429737463868103E-03  -1.447721321474090E-03  -1.465931387175651E-03
  -1.484370506282686E-03  -1.503041559893245E-03  -1.521947465343635E-03
  -1.541091176664189E-03  -1.560475685040753E-03  -1.580104019281987E-03
  -1.599979246292539E-03  -1.620104471552163E-03  -1.640482839600874E-03
  -1.661117534530179E-03  -1.682011780480518E-03  -1.703168842144925E-03
  -1.724592025279043E-03  -1.746284677217549E-03  -1.768250187397056E-03
  -1.790491987885614E-03  -1.813013553918846E-03  -1.835818404442834E-03
  -1.858910102663835E-03  -1.882292256604885E-03  -1.905968519669440E-03
  -1.929942591212059E-03  -1.954218217116290E-03  -1.978799190379820E-03
  -2.003689351706948E-03  -2.028892590108558E-03  -2.054412843509588E-03
  -2.080254099364156E-03  -2.106420395278425E-03  -2.132915819641264E-03
  -2.159744512262885E-03  -2.186910665021463E-03  -2.214418522517904E-03
  -2.242272382738851E-03  -2.270476597727986E-03  -2.299035574265827E-03
  -2.327953774558009E-03  -2.357235716932251E-03  -2.386885976544083E-03
  -2.416909186091409E-03  -2.447310036538096E-03  -2.478093277846617E-03
  -2.509263719719915E-03  -2.540826232352611E-03  -2.572785747191592E-03
  -2.605147257706232E-03  -2.637915820168228E-03  -2.671096554441267E-03
  -2.704694644780615E-03  -2.738715340642714E-03  -2.773163957505018E-03
  -2.808045877696062E-03  -2.843366551235988E-03  -2.879131496687653E-03
  -2.915346302018361E-03  -2.952016625472508E-03  -2.989148196455109E-03
  -3.026746816426468E-03  -3.064818359808083E-03  -3.103368774899888E-03
  -3.142404084809086E-03  -3.181930388390571E-03  -3.221953861199211E-03
  -3.262480756454082E-03  -3.303517406014768E-03  -3.345070221369996E-03
  -3.387145694638609E-03  -3.429750399583147E-03  -3.472890992636160E-03
  -3.516574213939356E-03  -3.560806888395871E-03  -3.605595926735669E-03
  -3.650948326594368E-03  -3.696871173605600E-03  -3.743371642507034E-03
  -3.790456998260370E-03  -3.838134597185292E-03  -3.886411888107707E-03
  -3.935296413522403E-03  -3.984795810770217E-03  -4.034917813230091E-03
  -4.085670251525972E-03  -4.137061054748912E-03  -4.189098251694502E-03
  -4.241789972115770E-03  -4.295144447991884E-03  -4.349170014812671E-03
  -4.403875112879311E-03  -4.459268288621315E-03  -4.515358195930014E-03
  -4.572153597508777E-03  -4.629663366240142E-03  -4.687896486570094E-03
  -4.746862055909704E-03  -4.806569286054302E-03  -4.867027504620472E-03
  -4.928246156501025E-03  -4.990234805338218E-03  -5.053003135015431E-03
  -5.116560951167510E-03  -5.180918182710059E-03  -5.246084883387853E-03
  -5.312071233342669E-03  -5.378887540700730E-03  -5.446544243180026E-03
  -5.515051909717781E-03  -5.584421242118240E-03  -5.654663076721131E-03
  -5.725788386090983E-03  -5.797808280727569E-03  -5.870734010797781E-03
  -5.944576967889127E-03  -6.019348686785193E-03  -6.095060847263299E-03
  -6.171725275914610E-03  -6.249353947987047E-03  -6.327958989251176E-03
  -6.407552677889460E-03  -6.488147446409109E-03  -6.569755883578804E-03
  -6.652390736389655E-03  -6.736064912040605E-03  -6.820791479948646E-03
  -6.906583673784156E-03  -6.993454893531582E-03  -7.081418707575897E-03
  -7.170488854815056E-03  -7.260679246798808E-03  -7.352003969894210E-03
  -7.444477287478091E-03  -7.538113642156909E-03  -7.632927658014212E-03
  -7.728934142886160E-03  -7.826148090665369E-03  -7.924584683633424E-03
  -8.024259294822497E-03  -8.125187490406291E-03  -8.227385032120789E-03
  -8.330867879715110E-03  -8.435652193432824E-03  -8.541754336524158E-03
  -8.649190877789396E-03  -8.757978594153903E-03  -8.868134473275151E-03
  -8.979675716182077E-03  -9.092619739947270E-03  -9.206984180392258E-03
  -9.322786894826412E-03  -9.440045964819796E-03  -9.558779699010369E-03
  -9.679006635946039E-03  -9.800745546961847E-03  -9.924015439092847E-03
  -1.004883555802302E-02  -1.017522539107064E-02  -1.030320467021064E-02
  -1.043279337513428E-02  -1.056401173634659E-02  -1.069688023830224E-02
  -1.083141962257991E-02  -1.096765089109596E-02  -1.110559530935771E-02
  -1.124527440975683E-02  -1.138670999490329E-02  -1.152992414100037E-02
  -1.167493920126123E-02  -1.182177780936748E-02  -1.197046288297027E-02
  -1.212101762723444E-02  -1.227346553842614E-02  -1.242783040754446E-02
  -1.258413632399767E-02  -1.274240767932445E-02  -1.290266917096069E-02
  -1.306494580605250E-02  -1.322926290531563E-02  -1.339564610694234E-02
  -1.356412137055572E-02  -1.373471498121241E-02  -1.390745355345417E-02
  -1.408236403540858E-02  -1.425947371293991E-02  -1.443881021385035E-02
  -1.462040151213228E-02  -1.480427593227225E-02  -1.499046215360705E-02
  -1.517898921473266E-02  -1.536988651796651E-02  -1.556318383386377E-02
  -1.575891130578817E-02  -1.595709945453791E-02  -1.615777918302747E-02
  -1.636098178102571E-02  -1.656673892995096E-02  -1.677508270772381E-02
  -1.698604559367793E-02  -1.719966047352995E-02  -1.741596064440873E-02
  -1.763497981994471E-02  -1.785675213542012E-02  -1.808131215298041E-02
  -1.830869486690791E-02  -1.853893570895797E-02  -1.877207055375861E-02
  -1.900813572427406E-02  -1.924716799733281E-02  -1.948920460922124E-02
  -1.973428326134291E-02  -1.998244212594463E-02  -2.023371985190981E-02
  -2.048815557061953E-02  -2.074578890188255E-02  -2.100665995993430E-02
  -2.127080935950595E-02  -2.153827822196415E-02  -2.180910818152181E-02
  -2.208334139152108E-02  -2.236102053078884E-02  -2.264218881006540E-02
  -2.292688997850739E-02  -2.321516833026494E-02  -2.350706871113442E-02
  -2.380263652528699E-02  -2.410191774207380E-02  -2.440495890290847E-02
  -2.471180712822742E-02  -2.502251012452883E-02  -2.533711619149082E-02
  -2.565567422916942E-02  -2.597823374527710E-02  -2.630484486254244E-02
  -2.663555832615138E-02  -2.697042551127102E-02  -2.730949843065630E-02
  -2.765282974234016E-02  -2.800047275740813E-02  -2.835248144785722E-02
  -2.870891045454048E-02  -2.906981509519726E-02  -2.943525137256981E-02
  -2.980527598260704E-02  -3.017994632275537E-02  -3.055932050033780E-02
  -3.094345734102133E-02  -3.133241639737317E-02  -3.172625795750649E-02
  -3.212504305381572E-02  -3.252883347180210E-02  -3.293769175898982E-02
  -3.335168123393300E-02  -3.377086599531406E-02  -3.419531093113337E-02
  -3.462508172799099E-02  -3.506024488046039E-02  -3.550086770055441E-02
  -3.594701832728391E-02  -3.639876573630872E-02  -3.685617974968167E-02
  -3.731933104568529E-02  -3.778829116876128E-02  -3.826313253953319E-02
  -3.874392846492141E-02  -3.923075314835120E-02  -3.972368170005321E-02
  -4.022279014745629E-02  -4.072815544567256E-02  -4.123985548807396E-02
  -4.175796911696056E-02  -4.228257613431959E-02  -4.281375731267519E-02
  -4.335159440602798E-02  -4.389617016088369E-02  -4.444756832737080E-02
  -4.500587367044551E-02  -4.557117198118391E-02  -4.614355008816010E-02
  -4.672309586890882E-02  -4.730989826147225E-02  -4.790404727602908E-02
  -4.850563400660478E-02  -4.911475064286172E-02  -4.973149048196705E-02
  -5.035594794053738E-02  -5.098821856665797E-02  -5.162839905197468E-02
  -5.227658724385663E-02  -5.293288215762704E-02  -5.359738398886057E-02
  -5.427019412574392E-02  -5.495141516149767E-02  -5.564115090685622E-02
  -5.633950640260252E-02  -5.704658793215531E-02  -5.776250303420474E-02
  -5.848736051539293E-02  -5.922127046303641E-02  -5.996434425788520E-02
  -6.071669458691570E-02  -6.147843545615233E-02  -6.224968220351300E-02
  -6.303055151167448E-02  -6.382116142095119E-02  -6.462163134218345E-02
  -6.543208206962843E-02  -6.625263579384827E-02  -6.708341611458925E-02
  -6.792454805364478E-02  -6.877615806769617E-02  -6.963837406112329E-02
  -7.051132539877770E-02  -7.139514291871067E-02  -7.228995894484665E-02
  -7.319590729959503E-02  -7.411312331638967E-02  -7.504174385214722E-02
  -7.598190729963465E-02  -7.693375359973392E-02  -7.789742425359508E-02
  -7.887306233466440E-02  -7.986081250057658E-02  -8.086082100489850E-02
  -8.187323570871044E-02  -8.289820609201282E-02  -8.393588326494245E-02
  -8.498641997878467E-02  -8.604997063676548E-02  -8.712669130460668E-02
  -8.821673972082855E-02  -8.932027530678127E-02  -9.043745917638701E-02
  -9.156845414557430E-02  -9.271342474138257E-02  -9.387253721071917E-02
  -9.504595952874394E-02  -9.623386140686120E-02  -9.743641430029440E-02
  -9.865379141521853E-02  -9.988616771542611E-02  -1.011337199284989E-01
  -1.023966265514583E-01  -1.036750678558654E-01  -1.049692258923406E-01
  -1.062792844944716E-01  -1.076054292820778E-01  -1.089478476637963E-01
  -1.103067288389559E-01  -1.116822637987004E-01  -1.130746453263254E-01
  -1.144840679967877E-01  -1.159107281753467E-01  -1.173548240152959E-01
  -1.188165554547373E-01  -1.202961242123572E-01  -1.217937337821511E-01
  -1.233095894270503E-01  -1.248438981713991E-01  -1.263968687922254E-01
  -1.279687118092544E-01  -1.295596394736020E-01  -1.311698657550920E-01
  -1.327996063281326E-01  -1.344490785560873E-01  -1.361185014740748E-01
  -1.378080957701259E-01  -1.395180837646274E-01  -1.412486893879757E-01
  -1.430001381563634E-01  -1.447726571456189E-01  -1.465664749630133E-01
  -1.483818217169497E-01  -1.502189289844441E-01  -1.520780297763035E-01
  -1.539593584999067E-01  -1.558631509194862E-01  -1.577896441138065E-01
  -1.597390764311343E-01  -1.617116874413841E-01  -1.637077178853295E-01
  -1.657274096207559E-01  -1.677710055654329E-01  -1.698387496367791E-01
  -1.719308866880833E-01  -1.740476624411481E-01  -1.761893234152125E-01
  -1.783561168520051E-01  -1.805482906367785E-01  -1.827660932151638E-01
  -1.850097735056863E-01  -1.872795808077705E-01  -1.895757647050634E-01
  -1.918985749638939E-01  -1.942482614266828E-01  -1.966250739001123E-01
  -1.990292620378558E-01  -2.014610752176621E-01  -2.039207624125845E-01
  -2.064085720561329E-01  -2.089247519011265E-01  -2.114695488720122E-01
  -2.140432089104088E-01  -2.166459768136296E-01  -2.192780960659267E-01
  -2.219398086621938E-01  -2.246313549238569E-01  -2.273529733066707E-01
  -2.301049002001337E-01  -2.328873697182243E-01  -2.357006134811512E-01
  -2.385448603878048E-01  -2.414203363785830E-01  -2.443272641882612E-01
  -2.472658630885577E-01  -2.502363486200495E-01  -2.532389323130693E-01
  -2.562738213972156E-01  -2.593412184990911E-01  -2.624413213278779E-01
  -2.655743223483463E-01  -2.687404084408845E-01  -2.719397605481247E-01
  -2.751725533077328E-01  -2.784389546709142E-01  -2.817391255061843E-01
  -2.850732191879349E-01  -2.884413811693208E-01  -2.918437485389810E-01
  -2.952804495610934E-01  -2.987516031982599E-01  -3.022573186167004E-01
  -3.057976946732284E-01  -3.093728193834714E-01  -3.129827693707852E-01
  -3.166276092953086E-01  -3.203073912625898E-01  -3.240221542112113E-01
  -3.277719232788285E-01  -3.315567091460315E-01  -3.353765073574336E-01
  -3.392312976193791E-01  -3.431210430736615E-01  -3.470456895466374E-01
  -3.510051647731102E-01  -3.549993775943674E-01  -3.590282171297414E-01
  -3.630915519210649E-01  -3.671892290493991E-01  -3.713210732234007E-01
  -3.754868858387118E-01  -3.796864440077476E-01  -3.839194995592725E-01
  -3.881857780071565E-01  -3.924849774877158E-01  -3.968167676650546E-01
  -4.011807886038395E-01  -4.055766496089485E-01  -4.100039280314662E-01
  -4.144621680405059E-01  -4.189508793603796E-01  -4.234695359726494E-01
  -4.280175747826385E-01  -4.325943942500079E-01  -4.371993529830432E-01
  -4.418317682963490E-01  -4.464909147316830E-01  -4.511760225417252E-01
  -4.558862761366292E-01  -4.606208124932649E-01  -4.653787195271366E-01
  -4.701590344270257E-01  -4.749607419524943E-01  -4.797827726944708E-01
  -4.846240012992263E-01  -4.894832446561641E-01  -4.943592600499400E-01
  -4.992507432775546E-01  -5.041563267311814E-01  -5.090745774476233E-01
  -5.140039951254436E-01  -5.189430101109532E-01  -5.238899813544109E-01
  -5.288431943379560E-01  -5.338008589769767E-01  -5.387611074968139E-01
  -5.437219922868972E-01  -5.486814837346308E-01  -5.536374680415730E-01
  -5.585877450246849E-01  -5.635300259056969E-01  -5.684619310918752E-01
  -5.733809879517734E-01  -5.782846285898446E-01  -5.831701876240636E-01
  -5.880348999710753E-01  -5.928758986436699E-01  -5.976902125657545E-01
  -6.024747644103563E-01  -6.072263684665291E-01  -6.119417285414663E-01
  -6.166174359044742E-01  -6.212499672799005E-01  -6.258356828965262E-01
  -6.303708246013401E-01  -6.348515140460933E-01  -6.392737509554453E-01
  -6.436334114859898E-01  -6.479262466859218E-01  -6.521478810655433E-01
  -6.562938112893233E-01  -6.603594050006585E-01  -6.643398997909813E-01
  -6.682304023253268E-01  -6.720258876369153E-01  -6.757211986037894E-01
  -6.793110456209575E-01  -6.827900064819360E-01  -6.861525264839893E-01
  -6.893929187717249E-01  -6.925053649340799E-01  -6.954839158700232E-01
  -6.983224929385923E-01  -7.010148894091058E-01  -7.035547722275661E-01
  -7.059356841153991E-01  -7.081510460167151E-01  -7.101941599102718E-01
  -7.120582120022149E-01  -7.137362763154799E-01  -7.152213186914692E-01
  -7.165062012192174E-01  -7.175836871067640E-01  -7.184464460088319E-01
  -7.190870598241472E-01  -7.194980289748589E-01  -7.196717791794567E-01
  -7.196006687294071E-01  -7.192769962783573E-01  -7.186930091512280E-01
  -7.178409121788081E-01  -7.167128770615689E-01  -7.153010522643455E-01
  -7.135975734412520E-01  -7.115945743877524E-01  -7.092841985141446E-01
  -7.066586108318903E-01  -7.037100104412105E-01  -7.004306435051639E-01
  -6.968128166921091E-01  -6.928489110649416E-01  -6.885313963919206E-01
  -6.838528458501981E-01  -6.788059510894091E-01  -6.733835376189453E-01
  -6.675785804787534E-01  -6.613842201498926E-01  -6.547937786575453E-01
  -6.478007758158848E-01  -6.403989455612339E-01  -6.325822523172948E-01
  -6.243449073341575E-01  -6.156813849412445E-01  -6.065864386535510E-01
  -5.970551170706480E-01  -5.870827795089238E-01  -5.766651113098491E-01
  -5.657981387705915E-01  -5.544782436483932E-01  -5.427021771970051E-01
  -5.304670737021053E-01  -5.177704634935691E-01  -5.046102854255953E-01
  -4.909848988314258E-01  -4.768930949779844E-01  -4.623341080671439E-01
  -4.473076258551348E-01  -4.318137999895915E-01  -4.158532561953379E-01
  -3.994271044753835E-01  -3.825369495325506E-01  -3.651849016601900E-01
  -3.473735883971307E-01  -3.291061672925276E-01  -3.103863401804881E-01
  -2.912183694217447E-01  -2.716070966302580E-01  -2.515579644655491E-01
  -2.310770421364025E-01  -2.101710553275544E-01  -1.888474213267397E-01
  -1.671142901943486E-01  -1.449805928799406E-01  -1.224560972476272E-01
  -9.955147302393481E-02  -7.627836672453242E-02  -5.264966538808469E-02
  -2.867995532541648E-02  -4.384751083173270E-03   2.021970727487562E-02
   4.511644063695822E-02   7.028771718908600E-02   9.571503867375881E-02
   1.213791266030537E-01   1.472599084730364E-01   1.733365040321690E-01
   1.995872116623847E-01   2.259894949377562E-01   2.525199694321991E-01
   2.791543898544281E-01   3.058676375954009E-01   3.326337087807703E-01
   3.594257029283775E-01   3.862158123185830E-01   4.129753121932182E-01
   4.396745519071693E-01   4.662829471650384E-01   4.927689734839563E-01
   5.191001610324646E-01   5.452430910043883E-01   5.711633936958007E-01
   5.968257484624960E-01   6.221938857448257E-01   6.472305913563028E-01
   6.718977132419797E-01   6.961561709222717E-01   7.199659678475532E-01
   7.432862068984929E-01   7.660751092766525E-01   7.882900370393116E-01
   8.098875195417581E-01   8.308232840593075E-01   8.510522908700626E-01
   8.705287730877928E-01   8.892062815422319E-01   9.070377350114855E-01
   9.239754761179848E-01   9.399713332054536E-01   9.549766885195063E-01
   9.689425530186978E-01   9.818196481459004E-01   9.935584948917063E-01
   1.004109510481923E+00   1.013423113020011E+00   1.021449834412309E+00
   1.028140441898860E+00   1.033446068505458E+00   1.037318352722846E+00
   1.039709587706599E+00   1.040572880275917E+00   1.039862319970907E+00
   1.037533158405768E+00   1.033541999129235E+00   1.027846998173344E+00
   1.020408075436710E+00   1.011187137008648E+00   1.000148308495313E+00
   9.872581793580297E-01   9.724860582168878E-01   9.558042390088787E-01
   9.371882778190344E-01   9.166172801246679E-01   8.940741981064838E-01
   8.695461375855355E-01   8.430246740413394E-01   8.145061770534137E-01
   7.839921423856986E-01   7.514895308003088E-01   7.170111125434688E-01
   6.805758162919756E-01   6.422090811827948E-01   6.019432103712197E-01
   5.598177243742204E-01   5.158797122551534E-01   4.701841784938723E-01
   4.227943831627060E-01   3.737821727939862E-01   3.232282990793468E-01
   2.712227222854950E-01   2.178648960064823E-01   1.632640295997772E-01
   1.075393243740787E-01   5.082017931249803E-02  -6.753638172474011E-03
  -6.503186124348150E-02  -1.238536374789057E-01  -1.830474929058521E-01
  -2.424313518520937E-01  -3.018126185000906E-01  -3.609883262641355E-01
  -4.197453613255122E-01  -4.778607668441325E-01  -5.351021345116428E-01
  -5.912280902129017E-01  -6.459888806117748E-01  -6.991270674643226E-01
  -7.503783363779056E-01  -7.994724265679163E-01  -8.461341879034980E-01
  -8.900847711676974E-01  -9.310429569733538E-01  -9.687266281604072E-01
  -1.002854389739438E+00  -1.033147339526070E+00  -1.059330991517041E+00
  -1.081137352777061E+00  -1.098307153121925E+00  -1.110592225184386E+00
  -1.117758030522342E+00  -1.119586325262775E+00  -1.115877956360141E+00
  -1.106455776877199E+00  -1.091167665765568E+00  -1.069889634431644E+00
  -1.042528998924596E+00  -1.009027592885783E+00  -9.693649924675662E-01
  -9.235617202860396E-01  -8.716823911460657E-01  -8.138387578068433E-01
  -7.501926104906302E-01  -6.809584792360117E-01  -6.064060836321605E-01
  -5.268624700271435E-01  -4.427137720808178E-01  -3.544065266456271E-01
  -2.624484735365680E-01  -1.674087649407527E-01  -6.991750817930979E-02
   2.933543555235369E-02   1.296024737829844E-01   2.300812026127801E-01
   3.299182967450699E-01   4.282144378689069E-01   5.240303427642573E-01
   6.163939434489419E-01   7.043087601500417E-01   7.867634936484899E-01
   8.627428464213882E-01   9.312395618302454E-01   9.912676472547132E-01
   1.041876720484698E+00   1.082167388861414E+00   1.111307537685801E+00
   1.128549368476113E+00   1.133246989057141E+00   1.124874316637059E+00
   1.103043012560843E+00   1.067520124075586E+00   1.018245065139211E+00
   9.553455261811692E-01   8.791518631164283E-01   7.902094803647256E-01
   6.892886928831563E-01   5.773915302242520E-01   4.557549335015282E-01
   3.258497961411004E-01   1.893753137859638E-01   4.824814010529014E-02
  -9.541410411327184E-02  -2.393153490736916E-01  -3.810099060911851E-01
  -5.179377737952527E-01  -6.474664374311299E-01  -7.669390045819257E-01
  -8.737283206695183E-01  -9.652964828579218E-01  -1.039258924196576E+00
  -1.093451975066680E+00  -1.126007811275243E+00  -1.135436013039338E+00
  -1.120669371728395E+00  -1.081103917222386E+00  -1.016703113981630E+00
  -9.280279623084673E-01  -8.162813804319752E-01  -6.833323065816741E-01
  -5.317236146126906E-01  -3.646604619391720E-01  -1.859767857202162E-01
  -7.806901511492075E-05   1.881409267860365E-01   3.734040225498031E-01
   5.501867301859994E-01   7.128732080789195E-01   8.559344695868542E-01
   9.741239523133818E-01   1.062685190791669E+00   1.117564957077398E+00
   1.135623908741249E+00   1.114835590549383E+00   1.054463664322207E+00
   9.552065890118595E-01   8.192987423643190E-01   6.505572683232732E-01
   4.543648449255316E-01   2.375801748586960E-01   8.370359712320679E-03
  -2.240375504756103E-01  -4.496846628005114E-01  -6.582822859790204E-01
  -8.396771239347866E-01  -9.843634391022448E-01  -1.084020583337883E+00
  -1.132049190913952E+00  -1.124074957680517E+00  -1.058385752289673E+00
  -9.362662999895094E-01  -7.621953162703836E-01  -5.438731635959123E-01
  -2.920541759283327E-01  -2.016690516509234E-02   2.562823553425046E-01
   5.205126286484032E-01   7.554508884675744E-01   9.448492597089231E-01
   1.074473891602113E+00   1.133286407471191E+00   1.114526099928724E+00
   1.016593669322740E+00   8.436371462474066E-01   6.057492965098550E-01
   3.187043976847616E-01   3.191188130235259E-03  -3.164625603334128E-01
  -6.140317575412110E-01  -8.635083266448557E-01  -1.041442287511566E+00
  -1.129316396496458E+00  -1.115724952262710E+00  -9.981088463042695E-01
  -7.838041157403081E-01  -4.901948129797405E-01  -1.438252532746264E-01
   2.215793594815955E-01   5.681163760714577E-01   8.575320890072642E-01
   1.055535354215464E+00   1.136144792810647E+00   1.085534339614172E+00
   9.048161474875100E-01   6.112460781394984E-01   2.374646596108754E-01
  -1.714051460610423E-01  -5.627061190054402E-01  -8.828277981610075E-01
  -1.084692329576185E+00  -1.135154238979228E+00  -1.021167423510484E+00
  -7.535743688554143E-01  -3.675670247715068E-01   8.073490216042638E-02
   5.215701322489716E-01   8.819857303691262E-01   1.098060797805395E+00
   1.126949472375070E+00   9.564883770922409E-01   6.101976311584471E-01
   1.460425664491175E-01  -3.516951594556947E-01  -7.867742985480076E-01
  -1.069483445130416E+00  -1.135913254701570E+00  -9.639139094154944E-01
  -5.816911131829547E-01  -6.601214894753844E-02   4.710522922865005E-01
   9.053151882810689E-01   1.129313459605558E+00   1.080348480110466E+00
   7.603759929839420E-01   2.413153403729089E-01  -3.477591709662616E-01
  -8.506047365727064E-01  -1.124937211749881E+00  -1.084347296641585E+00
  -7.286376471556519E-01  -1.516580391503626E-01   4.790564124907364E-01
   9.684007550565114E-01   1.154178142117916E+00   9.637174850875165E-01
   4.466083012635586E-01  -2.314309987970373E-01  -8.369700755984317E-01
  -1.147812525640439E+00  -1.037026330606538E+00  -5.302249194222655E-01
   1.905364826355908E-01   8.456096686483853E-01   1.163980380460924E+00
   9.984562051301344E-01   4.007631651067885E-01  -3.829647052957366E-01
  -1.005931538347831E+00  -1.172736003253088E+00  -7.851166143157007E-01
  -8.537130297973421E-03   7.858087512155345E-01   1.192103095173976E+00
   9.802332220620235E-01   2.368593362905965E-01  -6.518380684639113E-01
  -1.189885782748531E+00  -1.048991450114570E+00  -2.808191098757177E-01
   6.764620846004117E-01   1.233451807813243E+00   1.012569205008298E+00
   1.187628072953586E-01  -8.805148587603020E-01  -1.298928659463412E+00
  -8.060473974022870E-01   2.923344204138608E-01   1.210995584555943E+00
   1.232521688141102E+00   2.802915483461364E-01  -9.419775524807781E-01
  -1.436988907932890E+00  -7.257325327298674E-01   6.650944693901119E-01
   1.538767287802934E+00   1.037717769772779E+00  -4.938304727437948E-01
  -1.661029228372140E+00  -1.246335791518679E+00   5.084968816239290E-01
   1.902074621410779E+00   1.353848939242157E+00  -8.055953611592501E-01
  -2.322732841987718E+00  -1.268479486605603E+00   1.541537584135858E+00
   2.898412979380591E+00   7.084266611548417E-01  -2.930705441837577E+00
  -3.357644593280241E+00   9.314537284552881E-01   5.076771102772108E+00
   2.793442326486244E+00  -4.626713250674978E+00  -7.318137757180685E+00
    </PP_PSWFC.2>
    <PP_PSWFC.3 size="1095" index="3" label="2P" l="1">
   3.447961380657517E-08   3.535246937116285E-08   3.624742137882191E-08
   3.716502920363351E-08   3.810586638029933E-08   3.907052096261890E-08
   4.005959589104245E-08   4.107370936952812E-08   4.211349525193921E-08
   4.317960343822375E-08   4.427270028062242E-08   4.539346900016040E-08
   4.654261011368258E-08   4.772084187169902E-08   4.892890070731511E-08
   5.016754169652528E-08   5.143753903016038E-08   5.273968649778164E-08
   5.407479798382464E-08   5.544370797630371E-08   5.684727208839320E-08
   5.828636759321354E-08   5.976189397215512E-08   6.127477347708299E-08
   6.282595170677434E-08   6.441639819794729E-08   6.604710703125319E-08
   6.771909745260865E-08   6.943341451025685E-08   7.119112970795671E-08
   7.299334167470641E-08   7.484117685142217E-08   7.673579019499981E-08
   7.867836590019963E-08   8.067011813980670E-08   8.271229182352678E-08
   8.480616337609526E-08   8.695304153508339E-08   8.915426816890080E-08
   9.141121911550694E-08   9.372530504235252E-08   9.609797232809257E-08
   9.853070396661892E-08   1.010250204939786E-07   1.035824809387578E-07
   1.062046837965239E-07   1.088932680289357E-07   1.116499140881478E-07
   1.144763449671452E-07   1.173743272766703E-07   1.203456723494089E-07
   1.233922373721318E-07   1.265159265464952E-07   1.297186922792266E-07
   1.330025364024421E-07   1.363695114248529E-07   1.398217218146499E-07
   1.433613253148617E-07   1.469905342920123E-07   1.507116171189214E-07
   1.545268995925066E-07   1.584387663874810E-07   1.624496625468501E-07
   1.665620950101399E-07   1.707786341803141E-07   1.751019155303548E-07
   1.795346412505172E-07   1.840795819372826E-07   1.887395783250676E-07
   1.935175430617734E-07   1.984164625292795E-07   2.034393987100273E-07
   2.085894911008537E-07   2.138699586752743E-07   2.192841018954434E-07
   2.248353047750429E-07   2.305270369943978E-07   2.363628560691326E-07
   2.423464095737294E-07   2.484814374213756E-07   2.547717742015226E-07
   2.612213515766239E-07   2.678342007395454E-07   2.746144549331835E-07
   2.815663520338711E-07   2.886942372001771E-07   2.960025655887654E-07
   3.034959051390032E-07   3.111789394280620E-07   3.190564705982977E-07
   3.271334223587330E-07   3.354148430625259E-07   3.439059088623431E-07
   3.526119269456118E-07   3.615383388516734E-07   3.706907238729060E-07
   3.800748025419521E-07   3.896964402072222E-07   3.995616506989123E-07
   4.096766000878301E-07   4.200476105393678E-07   4.306811642650474E-07
   4.415839075740922E-07   4.527626550275675E-07   4.642243936976841E-07
   4.759762875349193E-07   4.880256818456992E-07   5.003801078834287E-07
   5.130472875557442E-07   5.260351382509325E-07   5.393517777865240E-07
   5.530055294831657E-07   5.670049273669347E-07   5.813587215033499E-07
   5.960758834664160E-07   6.111656119461067E-07   6.266373384978116E-07
   6.425007334373234E-07   6.587657118850580E-07   6.754424399632851E-07
   6.925413411502337E-07   7.100731027950607E-07   7.280486827977378E-07
   7.464793164580414E-07   7.653765234979276E-07   7.847521152616658E-07
   8.046182020982563E-07   8.249872009307223E-07   8.458718430170234E-07
   8.672851819074358E-07   8.892406016033605E-07   9.117518249226857E-07
   9.348329220769071E-07   9.584983194653759E-07   9.827628086921830E-07
   1.007641555811281E-06   1.033150110805665E-06   1.059304417306509E-06
   1.086120822558332E-06   1.113616087636453E-06   1.141807397923058E-06
   1.170712373848510E-06   1.200349081904541E-06   1.230736045936248E-06
   1.261892258719955E-06   1.293837193834137E-06   1.326590817830880E-06
   1.360173602715443E-06   1.394606538741731E-06   1.429911147531705E-06
   1.466109495526863E-06   1.503224207780279E-06   1.541278482097762E-06
   1.580296103536993E-06   1.620301459273715E-06   1.661319553844224E-06
   1.703376024773747E-06   1.746497158600433E-06   1.790709907304971E-06
   1.836041905156146E-06   1.882521485982785E-06   1.930177700882979E-06
   1.979040336381571E-06   2.029139933047303E-06   2.080507804581261E-06
   2.133176057388471E-06   2.187177610645032E-06   2.242546216873144E-06
   2.299316483037022E-06   2.357523892172864E-06   2.417204825566274E-06
   2.478396585491215E-06   2.541137418524467E-06   2.605466539450336E-06
   2.671424155770490E-06   2.739051492834176E-06   2.808390819604700E-06
   2.879485475078040E-06   2.952379895370303E-06   3.027119641490863E-06
   3.103751427818484E-06   3.182323151298406E-06   3.262883921378399E-06
   3.345484090702696E-06   3.430175286582910E-06   3.517010443265505E-06
   3.606043835016245E-06   3.697331110041972E-06   3.790929325271165E-06
   3.886896982014934E-06   3.985294062530614E-06   4.086182067511100E-06
   4.189624054522981E-06   4.295684677417805E-06   4.404430226740978E-06
   4.515928671163436E-06   4.630249699962289E-06   4.747464766576596E-06
   4.867647133265820E-06   4.990871916898719E-06   5.117216135901183E-06
   5.246758758392694E-06   5.379580751541040E-06   5.515765132166501E-06
   5.655397018626987E-06   5.798563684016373E-06   5.945354610709727E-06
   6.095861546288957E-06   6.250178560884269E-06   6.408402105967092E-06
   6.570631074631046E-06   6.736966863399069E-06   6.907513435594767E-06
   7.082377386318023E-06   7.261668009065287E-06   7.445497364036040E-06
   7.633980348168540E-06   7.827234766948025E-06   8.025381408032743E-06
   8.228544116743612E-06   8.436849873464462E-06   8.650428873001820E-06
   8.869414605953040E-06   9.093943942134261E-06   9.324157216120081E-06
   9.560198314948115E-06   9.802214768043932E-06   1.005035783942171E-05
   1.030478262221883E-05   1.056564813562336E-05   1.083311742425452E-05
   1.110735766005911E-05   1.138854024678653E-05   1.167684092710845E-05
   1.197243989244985E-05   1.227552189559949E-05   1.258627636617133E-05
   1.290489752898763E-05   1.323158452545883E-05   1.356654153803551E-05
   1.390997791780990E-05   1.426210831534763E-05   1.462315281483016E-05
   1.499333707159270E-05   1.537289245314308E-05   1.576205618374967E-05
   1.616107149268881E-05   1.657018776624418E-05   1.698966070355310E-05
   1.741975247639735E-05   1.786073189303770E-05   1.831287456619526E-05
   1.877646308528385E-05   1.925178719300141E-05   1.973914396639063E-05
   2.023883800248169E-05   2.075118160863335E-05   2.127649499769090E-05
   2.181510648808321E-05   2.236735270898363E-05   2.293357881066263E-05
   2.351413868016423E-05   2.410939516243989E-05   2.471972028707887E-05
   2.534549550077617E-05   2.598711190568300E-05   2.664497050378922E-05
   2.731948244748957E-05   2.801106929649076E-05   2.872016328121955E-05
   2.944720757289594E-05   3.019265656044082E-05   3.095697613439007E-05
   3.174064397799295E-05   3.254414986567642E-05   3.336799596906108E-05
   3.421269717072080E-05   3.507878138588061E-05   3.596678989225471E-05
   3.687727766823000E-05   3.781081373960573E-05   3.876798153510662E-05
   3.974937925089035E-05   4.075562022427748E-05   4.178733331693683E-05
   4.284516330776492E-05   4.392977129570575E-05   4.504183511276061E-05
   4.618204974744707E-05   4.735112777897061E-05   4.854979982237931E-05
   4.977881498498036E-05   5.103894133430193E-05   5.233096637789297E-05
   5.365569755526012E-05   5.501396274224780E-05   5.640661076817722E-05
   5.783451194606531E-05   5.929855861625562E-05   6.079966570379901E-05
   6.233877128993199E-05   6.391683719800926E-05   6.553484959425499E-05
   6.719381960370804E-05   6.889478394174467E-05   7.063880556157172E-05
   7.242697431809517E-05   7.426040764857607E-05   7.614025127049919E-05
   7.806767989708874E-05   8.004389797091645E-05   8.207014041605997E-05
   8.414767340927889E-05   8.627779517068958E-05   8.846183677443108E-05
   9.070116297982602E-05   9.299717308355562E-05   9.535130179337735E-05
   9.776502012393076E-05   1.002398363151887E-04   1.027772967741244E-04
   1.053789870401822E-04   1.080465327751511E-04   1.107816007780579E-04
   1.135859000257110E-04   1.164611827395428E-04   1.194092454794117E-04
   1.224319302650474E-04   1.255311257258347E-04   1.287087682796496E-04
   1.319668433414853E-04   1.353073865626107E-04   1.387324851010411E-04
   1.422442789241039E-04   1.458449621439102E-04   1.495367843865645E-04
   1.533220521959564E-04   1.572031304730148E-04   1.611824439513099E-04
   1.652624787099238E-04   1.694457837245292E-04   1.737349724576321E-04
   1.781327244889749E-04   1.826417871871027E-04   1.872649774231343E-04
   1.920051833277995E-04   1.968653660928293E-04   2.018485618178202E-04
   2.069578834037124E-04   2.121965224940584E-04   2.175677514652832E-04
   2.230749254671654E-04   2.287214845148089E-04   2.345109556333943E-04
   2.404469550570396E-04   2.465331904831313E-04   2.527734633835161E-04
   2.591716713739873E-04   2.657318106435274E-04   2.724579784448086E-04
   2.793543756474914E-04   2.864253093558930E-04   2.936751955926495E-04
   3.011085620500213E-04   3.087300509105567E-04   3.165444217387554E-04
   3.245565544458173E-04   3.327714523287526E-04   3.411942451864152E-04
   3.498301925136548E-04   3.586846867763096E-04   3.677632567683620E-04
   3.770715710536876E-04   3.866154414946391E-04   3.964008268692136E-04
   4.064338365793885E-04   4.167207344527228E-04   4.272679426396744E-04
   4.380820456087781E-04   4.491697942427647E-04   4.605381100370491E-04
   4.721940894043032E-04   4.841450080870009E-04   4.963983256810296E-04
   5.089616902728339E-04   5.218429431930350E-04   5.350501238897839E-04
   5.485914749242021E-04   5.624754470913210E-04   5.767107046697002E-04
   5.913061308028204E-04   6.062708330152862E-04   6.216141488678069E-04
   6.373456517537424E-04   6.534751568411290E-04   6.700127271635986E-04
   6.869686798641420E-04   7.043535925952929E-04   7.221783100793938E-04
   7.404539508336798E-04   7.591919140631646E-04   7.784038867267272E-04
   7.981018507794312E-04   8.182980905963631E-04   8.390052005821927E-04
   8.602360929707144E-04   8.820040058196553E-04   9.043225112049739E-04
   9.272055236201737E-04   9.506673085849028E-04   9.747224914688544E-04
   9.993860665355914E-04   1.024673406211993E-03   1.050600270589027E-03
   1.077182817158865E-03   1.104437610795060E-03   1.132381633981009E-03
   1.161032297293066E-03   1.190407450144471E-03   1.220525391796594E-03
   1.251404882643824E-03   1.283065155778800E-03   1.315525928845025E-03
   1.348807416183729E-03   1.382930341281822E-03   1.417915949528439E-03
   1.453786021288810E-03   1.490562885300124E-03   1.528269432400390E-03
   1.566929129596965E-03   1.606566034481401E-03   1.647204810003285E-03
   1.688870739606038E-03   1.731589742738611E-03   1.775388390747790E-03
   1.820293923163937E-03   1.866334264386657E-03   1.913538040782260E-03
   1.961934598199995E-03   2.011554019920872E-03   2.062427145045690E-03
   2.114585587334900E-03   2.168061754510318E-03   2.222888868029348E-03
   2.279100983344439E-03   2.336733010655199E-03   2.395820736170931E-03
   2.456400843889838E-03   2.518510937909387E-03   2.582189565282154E-03
   2.647476239425411E-03   2.714411464100731E-03   2.783036757976608E-03
   2.853394679786191E-03   2.925528854094891E-03   2.999483997690214E-03
   3.075305946612727E-03   3.153041683835442E-03   3.232739367614051E-03
   3.314448360517626E-03   3.398219259159202E-03   3.484103924638095E-03
   3.572155513714109E-03   3.662428510727863E-03   3.754978760283343E-03
   3.849863500710957E-03   3.947141398329451E-03   4.046872582520820E-03
   4.149118681640116E-03   4.253942859775886E-03   4.361409854380872E-03
   4.471586014792061E-03   4.584539341658585E-03   4.700339527298232E-03
   4.819057997000420E-03   4.940767951299259E-03   5.065544409233394E-03
   5.193464252616243E-03   5.324606271337858E-03   5.459051209716601E-03
   5.596881813927770E-03   5.738182880526192E-03   5.883041306089142E-03
   6.031546138000040E-03   6.183788626396107E-03   6.339862277305335E-03
   6.499862906993743E-03   6.663888697548262E-03   6.832040253719498E-03
   7.004420661048242E-03   7.181135545300350E-03   7.362293133235892E-03
   7.548004314735773E-03   7.738382706313011E-03   7.933544716033679E-03
   8.133609609871717E-03   8.338699579526229E-03   8.548939811723586E-03
   8.764458559033381E-03   8.985387212224208E-03   9.211860374182375E-03
   9.444015935423253E-03   9.681995151219770E-03   9.925942720373580E-03
   1.017600686565737E-02   1.043233941595090E-02   1.069509589009936E-02
   1.096443558251780E-02   1.124052165056860E-02   1.152352120373541E-02
   1.181360539461848E-02   1.211094951177664E-02   1.241573307444008E-02
   1.272813992911346E-02   1.304835834809794E-02   1.337658112994869E-02
   1.371300570189247E-02   1.405783422422378E-02   1.441127369670062E-02
   1.477353606695674E-02   1.514483834094916E-02   1.552540269545531E-02
   1.591545659263664E-02   1.631523289668090E-02   1.672496999253368E-02
   1.714491190673244E-02   1.757530843034794E-02   1.801641524404152E-02
   1.846849404524066E-02   1.893181267743662E-02   1.940664526160139E-02
   1.989327232972213E-02   2.039198096044608E-02   2.090306491682703E-02
   2.142682478616109E-02   2.196356812189516E-02   2.251360958758956E-02
   2.307727110290934E-02   2.365488199161776E-02   2.424677913154107E-02
   2.485330710646272E-02   2.547481835991008E-02   2.611167335078240E-02
   2.676424071076898E-02   2.743289740349567E-02   2.811802888533681E-02
   2.882002926781634E-02   2.953930148152152E-02   3.027625744143911E-02
   3.103131821361900E-02   3.180491418306192E-02   3.259748522271617E-02
   3.340948086346184E-02   3.424136046494722E-02   3.509359338713814E-02
   3.596665916241890E-02   3.686104766808418E-02   3.777725929903893E-02
   3.871580514051336E-02   3.967720714059120E-02   4.066199828232295E-02
   4.167072275519778E-02   4.270393612571125E-02   4.376220550676690E-02
   4.484610972562438E-02   4.595623949008365E-02   4.709319755258562E-02
   4.825759887188000E-02   4.945007077189625E-02   5.067125309742392E-02
   5.192179836619289E-02   5.320237191691390E-02   5.451365205281473E-02
   5.585633018018182E-02   5.723111094138955E-02   5.863871234186489E-02
   6.007986587041148E-02   6.155531661227776E-02   6.306582335432726E-02
   6.461215868162698E-02   6.619510906473867E-02   6.781547493695808E-02
   6.947407076070469E-02   7.117172508222892E-02   7.290928057375590E-02
   7.468759406214300E-02   7.650753654308021E-02   7.836999317981558E-02
   8.027586328533938E-02   8.222606028690466E-02   8.422151167171396E-02
   8.626315891254230E-02   8.835195737200893E-02   9.048887618415780E-02
   9.267489811193508E-02   9.491101937909896E-02   9.719824947502624E-02
   9.953761093081315E-02   1.019301390650041E-01   1.043768816972066E-01
   1.068788988277790E-01   1.094372622817077E-01   1.120530553147043E-01
   1.147273721794920E-01   1.174613176501536E-01   1.202560065023463E-01
   1.231125629470989E-01   1.260321200158273E-01   1.290158188941201E-01
   1.320648082017583E-01   1.351802432163510E-01   1.383632850378807E-01
   1.416150996913637E-01   1.449368571647524E-01   1.483297303791089E-01
   1.517948940880066E-01   1.553335237030227E-01   1.589467940421085E-01
   1.626358779975424E-01   1.664019451200931E-01   1.702461601159439E-01
   1.741696812528671E-01   1.781736586720563E-01   1.822592326019817E-01
   1.864275314705648E-01   1.906796699119273E-01   1.950167466639313E-01
   1.994398423526877E-01   2.039500171602042E-01   2.085483083713161E-01
   2.132357277960616E-01   2.180132590636732E-01   2.228818547843834E-01
   2.278424335753044E-01   2.328958769466982E-01   2.380430260450430E-01
   2.432846782494191E-01   2.486215836178560E-01   2.540544411804647E-01
   2.595838950763477E-01   2.652105305315113E-01   2.709348696752587E-01
   2.767573671928206E-01   2.826784058123362E-01   2.886982916246316E-01
   2.948172492346887E-01   3.010354167441624E-01   3.073528405647867E-01
   3.137694700631364E-01   3.202851520377888E-01   3.268996250306536E-01
   3.336125134750043E-01   3.404233216835333E-01   3.473314276807183E-01
   3.543360768847087E-01   3.614363756450436E-01   3.686312846436657E-01
   3.759196121678959E-01   3.833000072654351E-01   3.907709527928257E-01
   3.983307583703933E-01   4.059775532583200E-01   4.137092791702242E-01
   4.215236830425452E-01   4.294183097799508E-01   4.373904949991232E-01
   4.454373577955012E-01   4.535557935598516E-01   4.617424668740698E-01
   4.699938045181248E-01   4.783059886228073E-01   4.866749500057582E-01
   4.950963617311392E-01   5.035656329364203E-01   5.120779029728240E-01
   5.206280359092471E-01   5.292106154527940E-01   5.378199403423914E-01
   5.464500202754684E-01   5.550945724310781E-01   5.637470186563782E-01
   5.724004833868579E-01   5.810477923740893E-01   5.896814722982316E-01
   5.982937513456928E-01   6.068765608355212E-01   6.154215379810204E-01
   6.239200298757097E-01   6.323630987952011E-01   6.407415289085134E-01
   6.490458344939609E-01   6.572662697558371E-01   6.653928403385561E-01
   6.734153166347838E-01   6.813232489830575E-01   6.891059848485905E-01
   6.967526880781012E-01   7.042523603155260E-01   7.115938646603256E-01
   7.187659516434699E-01   7.257572875881184E-01   7.325564854122641E-01
   7.391521379189631E-01   7.455328536062661E-01   7.516872950131688E-01
   7.576042195998807E-01   7.632725231401558E-01   7.686812855801790E-01
   7.738198192924930E-01   7.786777196243504E-01   7.832449176076982E-01
   7.875117346624870E-01   7.914689390860459E-01   7.951078040788324E-01
   7.984201670107491E-01   8.013984895824989E-01   8.040359184830360E-01
   8.063263460870849E-01   8.082644706761397E-01   8.098458556023169E-01
   8.110669867472895E-01   8.119253275585013E-01   8.124193708723636E-01
   8.125486866597252E-01   8.123139647531552E-01   8.117170515392917E-01
   8.107609795235821E-01   8.094499886002396E-01   8.077895377884248E-01
   8.057863061279510E-01   8.034481813658634E-01   8.007842350108729E-01
   7.978046822879685E-01   7.945208254928345E-01   7.909449792275793E-01
   7.870903759985062E-01   7.829710506762655E-01   7.786017023620890E-01
   7.739975322743029E-01   7.691740563708594E-01   7.641468915599821E-01
   7.589315145263628E-01   7.535429924188501E-01   7.479956849114074E-01
   7.423029174665873E-01   7.364766260038940E-01   7.305269736080935E-01
   7.244619404083735E-01   7.182868883211869E-01   7.120041029802181E-01
   7.056123158776170E-01   6.991082190488055E-01   6.924936222731131E-01
   6.857720088278879E-01   6.789469074308444E-01   6.720218890553356E-01
   6.650005637772188E-01   6.578865776570166E-01   6.506836096625586E-01
   6.433953686256696E-01   6.360255902536694E-01   6.285780341798289E-01
   6.210564810632027E-01   6.134647297373954E-01   6.058065944091474E-01
   5.980859019072549E-01   5.903064889819639E-01   5.824721996546501E-01
   5.745868826172805E-01   5.666543886808342E-01   5.586785682715826E-01
   5.506632689738692E-01   5.426123331177922E-01   5.345295954099877E-01
   5.264188806055222E-01   5.182840012187532E-01   5.101287552708812E-01
   5.019569240718244E-01   4.937722700339692E-01   4.855785345153121E-01
   4.773794356894920E-01   4.691786664402275E-01   4.609798922777183E-01
   4.527867492746384E-01   4.446028420194465E-01   4.364317415848628E-01
   4.282769835095123E-01   4.201420657909004E-01   4.120304468880891E-01
   4.039455437326512E-01   3.958907297467206E-01   3.878693328672038E-01
   3.798846335754930E-01   3.719398629323005E-01   3.640382006175285E-01
   3.561827729753989E-01   3.483766510653757E-01   3.406228487197366E-01
   3.329243206089706E-01   3.252839603165074E-01   3.177045984246036E-01
   3.101890006135372E-01   3.027398657765777E-01   2.953598241535046E-01
   2.880514354857543E-01   2.808171871965576E-01   2.736594925997091E-01
   2.665806891408696E-01   2.595830366755437E-01   2.526687157880990E-01
   2.458398261563957E-01   2.390983849667758E-01   2.324463253843165E-01
   2.258854950833836E-01   2.194176548436241E-01   2.130444772166139E-01
   2.067675452684238E-01   2.005883514033840E-01   1.945082962743166E-01
   1.885286877844611E-01   1.826507401862441E-01   1.768755732819378E-01
   1.712042117311175E-01   1.656375844696577E-01   1.601765242448069E-01
   1.548217672706566E-01   1.495739530080532E-01   1.444336240727221E-01
   1.394012262750505E-01   1.344771087946373E-01   1.296615244923491E-01
   1.249546303622296E-01   1.203564881251970E-01   1.158670649660281E-01
   1.114862344146773E-01   1.072137773725079E-01   1.030493832835312E-01
   9.899265145025309E-02   9.504309249322355E-02   9.120012995287444E-02
   8.746310203171265E-02   8.383126347442092E-02   8.030378758290069E-02
   7.687976836277932E-02   7.355822279739835E-02   7.033809324480177E-02
   6.721824995275966E-02   6.419749368639201E-02   6.127455846250578E-02
   5.844811438432527E-02   5.571677056988705E-02   5.307907816698573E-02
   5.053353344719988E-02   4.807858097120029E-02   4.571261681724615E-02
   4.343399186451350E-02   4.124101512267230E-02   3.913195709893873E-02
   3.710505319367668E-02   3.515850711550915E-02   3.329049430682725E-02
   3.149916537055097E-02   2.978264948900478E-02   2.813905782581951E-02
   2.656648690186207E-02   2.506302193632506E-02   2.362674014427794E-02
   2.225571398219110E-02   2.094801433319025E-02   1.970171362408214E-02
   1.851488886651013E-02   1.738562461494907E-02   1.631201583463041E-02
   1.529217067289870E-02   1.432421312793723E-02   1.340628560926043E-02
   1.253655138485184E-02   1.171319691032563E-02   1.093443403600403E-02
   1.019850208832949E-02   9.503669822566339E-03   8.848237244288452E-03
   8.230537297694124E-03   7.648937419334333E-03   7.101840956382001E-03
   6.587688449105457E-03   6.104958777735899E-03   5.652170174433330E-03
   5.227881101555924E-03   4.830690997920981E-03   4.459240895209776E-03
   4.112213907111001E-03   3.788335594216406E-03   3.486374208075719E-03
   3.205140818184393E-03   2.943489326015716E-03   2.700316370517240E-03
   2.474561129769210E-03   2.265205023749099E-03   2.071271323360863E-03
   1.891824671069800E-03   1.725970518633894E-03   1.572854487540275E-03
   1.431661657841299E-03   1.301615791139199E-03   1.181978493491971E-03
   1.072048324007360E-03   9.711598548534702E-04   8.786826883675384E-04
   7.940204368055484E-04   7.166096702500593E-04   6.459188379838974E-04
   5.814471684456242E-04   5.227235528262304E-04   4.693054170549403E-04
   4.207775867344342E-04   3.767511493606726E-04   3.368623176393591E-04
   3.007713114528748E-04   2.681610923278328E-04   2.387372188825553E-04
   2.122232138319471E-04   1.883673373496348E-04   1.669367028693294E-04
   1.477125945553408E-04   1.304919659911981E-04   1.150874807093654E-04
   1.013265314810329E-04   8.905029136820685E-05   7.811279649895121E-05
   6.838006025183998E-05   5.972921816237654E-05   5.204770247939875E-05
   4.523244485049018E-05   3.918910511284496E-05   3.383132370206131E-05
   2.907999416451952E-05   2.486254817406480E-05   2.111231017874947E-05
   1.776746792428847E-05   1.478208117947256E-05   1.204822233386253E-05
   0.000000000000000E+00   0.000000000000000E+00   0.000000000000000E+00
   0.000000000000000E+00   0.000000000000000E+00   0.000000000000000E+00
   0.000000000000000E+00   0.000000000000000E+00   0.000000000000000E+00
   0.000000000000000E+00   0.000000000000000E+00   0.000000000000000E+00
   0.000000000000000E+00   0.000000000000000E+00   0.000000000000000E+00
   0.000000000000000E+00   0.000000000000000E+00   0.000000000000000E+00
   0.000000000000000E+00   0.000000000000000E+00   0.000000000000000E+00
   0.000000000000000E+00   0.000000000000000E+00   0.000000000000000E+00
   0.000000000000000E+00   0.000000000000000E+00   0.000000000000000E+00
   0.000000000000000E+00   0.000000000000000E+00   0.000000000000000E+00
   0.000000000000000E+00   0.000000000000000E+00   0.000000000000000E+00
   0.000000000000000E+00   0.000000000000000E+00   0.000000000000000E+00
   0.000000000000000E+00   0.000000000000000E+00   0.000000000000000E+00
   0.000000000000000E+00   0.000000000000000E+00   0.000000000000000E+00
   0.000000000000000E+00   0.000000000000000E+00   0.000000000000000E+00
   0.000000000000000E+00   0.000000000000000E+00   0.000000000000000E+00
   0.000000000000000E+00   0.000000000000000E+00   0.000000000000000E+00
   0.000000000000000E+00   0.000000000000000E+00   0.000000000000000E+00
   0.000000000000000E+00   0.000000000000000E+00   0.000000000000000E+00
   0.000000000000000E+00   0.000000000000000E+00   0.000000000000000E+00
   0.000000000000000E+00   0.000000000000000E+00   0.000000000000000E+00
   0.000000000000000E+00   0.000000000000000E+00   0.000000000000000E+00
   0.000000000000000E+00   0.000000000000000E+00   0.000000000000000E+00
   0.000000000000000E+00   0.000000000000000E+00   0.000000000000000E+00
   0.000000000000000E+00   0.000000000000000E+00   0.000000000000000E+00
   0.000000000000000E+00   0.000000000000000E+00   0.000000000000000E+00
   0.000000000000000E+00   0.000000000000000E+00   0.000000000000000E+00
   0.000000000000000E+00   0.000000000000000E+00   0.000000000000000E+00
   0.000000000000000E+00   0.000000000000000E+00   0.000000000000000E+00
   0.000000000000000E+00   0.000000000000000E+00   0.000000000000000E+00
   0.000000000000000E+00   0.000000000000000E+00   0.000000000000000E+00
   0.000000000000000E+00   0.000000000000000E+00   0.000000000000000E+00
   0.000000000000000E+00   0.000000000000000E+00   0.000000000000000E+00
   0.000000000000000E+00   0.000000000000000E+00   0.000000000000000E+00
   0.000000000000000E+00   0.000000000000000E+00   0.000000000000000E+00
   0.000000000000000E+00   0.000000000000000E+00   0.000000000000000E+00
   0.000000000000000E+00   0.000000000000000E+00   0.000000000000000E+00
   0.000000000000000E+00   0.000000000000000E+00   0.000000000000000E+00
   0.000000000000000E+00   0.000000000000000E+00   0.000000000000000E+00
   0.000000000000000E+00   0.000000000000000E+00   0.000000000000000E+00
   0.000000000000000E+00   0.000000000000000E+00   0.000000000000000E+00
   0.000000000000000E+00   0.000000000000000E+00   0.000000000000000E+00
   0.000000000000000E+00   0.000000000000000E+00   0.000000000000000E+00
   0.000000000000000E+00   0.000000000000000E+00   0.000000000000000E+00
   0.000000000000000E+00   0.000000000000000E+00   0.000000000000000E+00
   0.000000000000000E+00   0.000000000000000E+00   0.000000000000000E+00
   0.000000000000000E+00   0.000000000000000E+00   0.000000000000000E+00
   0.000000000000000E+00   0.000000000000000E+00   0.000000000000000E+00
   0.000000000000000E+00   0.000000000000000E+00   0.000000000000000E+00
   0.000000000000000E+00   0.000000000000000E+00   0.000000000000000E+00
   0.000000000000000E+00   0.000000000000000E+00   0.000000000000000E+00
    </PP_PSWFC.3>
    <PP_PSWFC.4 size="1095" index="4" label="2P" l="1">
   2.407460219906246E-08   2.468405364434305E-08   2.530893342585247E-08
   2.594963211375294E-08   2.660655016553611E-08   2.728009817632160E-08
   2.797069713549236E-08   2.867877868982664E-08   2.940478541329098E-08
   3.014917108366353E-08   3.091240096615946E-08   3.169495210423681E-08
   3.249731361776412E-08   3.331998700873592E-08   3.416348647472800E-08
   3.502833923028692E-08   3.591508583645646E-08   3.682428053864552E-08
   3.775649161304926E-08   3.871230172184032E-08   3.969230827735099E-08
   4.069712381547529E-08   4.172737637852363E-08   4.278370990776937E-08
   4.386678464593292E-08   4.497727754985431E-08   4.611588271361325E-08
   4.728331180236001E-08   4.848029449712896E-08   4.970757895091286E-08
   5.096593225628196E-08   5.225614092484186E-08   5.357901137882815E-08
   5.493537045514615E-08   5.632606592217076E-08   5.775196700962824E-08
   5.921396495189283E-08   6.071297354503675E-08   6.224992971798171E-08
   6.382579411810980E-08   6.544155171169808E-08   6.709821239955441E-08
   6.879681164823734E-08   7.053841113725570E-08   7.232409942265249E-08
   7.415499261738626E-08   7.603223508893771E-08   7.795700017457550E-08
   7.993049091472924E-08   8.195394080492837E-08   8.402861456677519E-08
   8.615580893843639E-08   8.833685348514540E-08   9.057311143022245E-08
   9.286598050713291E-08   9.521689383311391E-08   9.762732080491836E-08
   1.000987680172342E-07   1.026327802043533E-07   1.052309412056797E-07
   1.078948749556780E-07   1.106262464988841E-07   1.134267630306103E-07
   1.162981749639954E-07   1.192422770240685E-07   1.222609093695079E-07
   1.253559587427973E-07   1.285293596494999E-07   1.317830955673835E-07
   1.351192001861573E-07   1.385397586785899E-07   1.420469090038081E-07
   1.456428432435871E-07   1.493298089724697E-07   1.531101106625710E-07
   1.569861111239434E-07   1.609602329814063E-07   1.650349601887619E-07
   1.692128395813421E-07   1.734964824678601E-07   1.778885662625570E-07
   1.823918361586690E-07   1.870091068442570E-07   1.917432642614722E-07
   1.965972674103593E-07   2.015741501983203E-07   2.066770233363996E-07
   2.119090762835730E-07   2.172735792402558E-07   2.227738851922781E-07
   2.284134320066009E-07   2.341957445800871E-07   2.401244370426682E-07
   2.462032150162838E-07   2.524358779310074E-07   2.588263213998017E-07
   2.653785396533946E-07   2.720966280367914E-07   2.789847855689872E-07
   2.860473175674794E-07   2.932886383392157E-07   3.007132739396680E-07
   3.083258650017494E-07   3.161311696363454E-07   3.241340664062742E-07
   3.323395573755275E-07   3.407527712357081E-07   3.493789665116097E-07
   3.582235348479467E-07   3.672920043792894E-07   3.765900431853029E-07
   3.861234628334616E-07   3.958982220114437E-07   4.059204302514795E-07
   4.161963517489843E-07   4.267324092778534E-07   4.375351882048778E-07
   4.486114406057827E-07   4.599680894854618E-07   4.716122331050494E-07
   4.835511494185260E-07   4.957923006216415E-07   5.083433378159909E-07
   5.212121057911608E-07   5.344066479279375E-07   5.479352112256318E-07
   5.618062514566784E-07   5.760284384517168E-07   5.906106615184652E-07
   6.055620349977762E-07   6.208919039603301E-07   6.366098500475540E-07
   6.527256974603921E-07   6.692495190996838E-07   6.861916428619871E-07
   7.035626580947703E-07   7.213734222150223E-07   7.396350674954109E-07
   7.583590080222250E-07   7.775569468294660E-07   7.972408832135198E-07
   8.174231202330135E-07   8.381162723985192E-07   8.593332735569216E-07
   8.810873849753809E-07   9.033922036299262E-07   9.262616707038833E-07
   9.497100803014313E-07   9.737520883817380E-07   9.984027219192667E-07
   1.023677388295959E-06   1.049591884931188E-06   1.076162409155485E-06
   1.103405568334211E-06   1.131338390247516E-06   1.159978333733043E-06
   1.189343299598061E-06   1.219451641807829E-06   1.250322178957184E-06
   1.281974206032530E-06   1.314427506471567E-06   1.347702364528314E-06
   1.381819577951140E-06   1.416800470981724E-06   1.452666907683100E-06
   1.489441305605042E-06   1.527146649795448E-06   1.565806507166344E-06
   1.605445041223592E-06   1.646087027169472E-06   1.687757867387529E-06
   1.730483607319475E-06   1.774290951743937E-06   1.819207281467317E-06
   1.865260670437186E-06   1.912479903288814E-06   1.960894493335984E-06
   2.010534701017119E-06   2.061431552808414E-06   2.113616860615736E-06
   2.167123241657355E-06   2.221984138850067E-06   2.278233841711286E-06
   2.335907507790301E-06   2.395041184642038E-06   2.455671832356999E-06
   2.517837346661629E-06   2.581576582603319E-06   2.646929378835045E-06
   2.713936582514720E-06   2.782640074834785E-06   2.853082797198154E-06
   2.925308778056645E-06   2.999363160428856E-06   3.075292230114618E-06
   3.153143444623568E-06   3.232965462836134E-06   3.314808175415205E-06
   3.398722735987691E-06   3.484761593115412E-06   3.572978523075143E-06
   3.663428663468621E-06   3.756168547683125E-06   3.851256140224486E-06
   3.948750872944454E-06   4.048713682184997E-06   4.151207046862996E-06
   4.256295027518787E-06   4.364043306353244E-06   4.474519228278308E-06
   4.587791843006471E-06   4.703931948205883E-06   4.823012133747599E-06
   4.945106827072949E-06   5.070292339709268E-06   5.198646914962921E-06
   5.330250776819742E-06   5.465186180083042E-06   5.603537461780834E-06
   5.745391093874273E-06   5.890835737300114E-06   6.039962297381322E-06
   6.192863980639943E-06   6.349636353048193E-06   6.510377399753942E-06
   6.675187586317773E-06   6.844169921500327E-06   7.017430021638582E-06
   7.195076176651709E-06   7.377219417717674E-06   7.563973586662546E-06
   7.755455407106456E-06   7.951784557409975E-06   8.153083745467007E-06
   8.359478785390745E-06   8.571098676140329E-06   8.788075682137960E-06
   9.010545415926050E-06   9.238646922916670E-06   9.472522768285979E-06
   9.712319126067685E-06   9.958185870501867E-06   1.021027666969531E-05
   1.046874908165265E-05   1.073376465273786E-05   1.100548901862769E-05
   1.128409200782020E-05   1.156974774776282E-05   1.186263477366650E-05
   1.216293614007375E-05   1.247083953525011E-05   1.278653739847091E-05
   1.311022704027601E-05   1.344211076576812E-05   1.378239600103145E-05
   1.413129542274957E-05   1.448902709110365E-05   1.485581458603382E-05
   1.523188714694895E-05   1.561747981597196E-05   1.601283358481006E-05
   1.641819554534183E-05   1.683381904401484E-05   1.725996384015054E-05
   1.769689626825510E-05   1.814488940443733E-05   1.860422323703810E-05
   1.907518484157713E-05   1.955806856012689E-05   2.005317618522536E-05
   2.056081714844228E-05   2.108130871371711E-05   2.161497617558864E-05
   2.216215306244065E-05   2.272318134489019E-05   2.329841164944831E-05
   2.388820347758712E-05   2.449292543034926E-05   2.511295543864048E-05
   2.574868099934884E-05   2.640049941743749E-05   2.706881805416296E-05
   2.775405458157279E-05   2.845663724344206E-05   2.917700512281135E-05
   2.991560841629273E-05   3.067290871531565E-05   3.144937929448711E-05
   3.224550540724703E-05   3.306178458900255E-05   3.389872696793036E-05
   3.475685558364137E-05   3.563670671390575E-05   3.653883020964262E-05
   3.746378983838326E-05   3.841216363642118E-05   3.938454426987005E-05
   4.038153940485301E-05   4.140377208705532E-05   4.245188113087638E-05
   4.352652151842354E-05   4.462836480859705E-05   4.575809955652011E-05
   4.691643174357633E-05   4.810408521832212E-05   4.932180214854835E-05
   5.057034348477392E-05   5.185048943545873E-05   5.316303995423327E-05
   5.450881523944742E-05   5.588865624634977E-05   5.730342521221699E-05
   5.875400619475916E-05   6.024130562413729E-05   6.176625286893642E-05
   6.332980081644570E-05   6.493292646760865E-05   6.657663154701132E-05
   6.826194312829008E-05   6.998991427534742E-05   7.176162469977394E-05
   7.357818143488684E-05   7.544071952680326E-05   7.735040274297835E-05
   7.930842429864928E-05   8.131600760163631E-05   8.337440701596343E-05
   8.548490864477483E-05   8.764883113303228E-05   8.986752649049282E-05
   9.214238093547883E-05   9.447481575996226E-05   9.686628821650381E-05
   9.931829242759508E-05   1.018323603179693E-04   1.044100625704609E-04
   1.070530096060034E-04   1.097628525883781E-04   1.125412844543352E-04
   1.153900409697256E-04   1.183109018123004E-04   1.213056916818468E-04
   1.243762814383524E-04   1.275245892689004E-04   1.307525818840202E-04
   1.340622757442356E-04   1.374557383175668E-04   1.409350893687707E-04
   1.445025022811129E-04   1.481602054114920E-04   1.519104834797555E-04
   1.557556789930636E-04   1.596981937061871E-04   1.637404901186378E-04
   1.678850930095604E-04   1.721345910113328E-04   1.764916382228470E-04
   1.809589558634690E-04   1.855393339686975E-04   1.902356331285686E-04
   1.950507862698815E-04   1.999878004833385E-04   2.050497588967401E-04
   2.102398225953481E-04   2.155612325907238E-04   2.210173118390080E-04
   2.266114673101940E-04   2.323471921094708E-04   2.382280676518869E-04
   2.442577658919332E-04   2.504400516091489E-04   2.567787847512745E-04
   2.632779228363942E-04   2.699415234155680E-04   2.767737465973073E-04
   2.837788576357035E-04   2.909612295835369E-04   2.983253460122077E-04
   3.058758037999171E-04   3.136173159901465E-04   3.215547147217806E-04
   3.296929542330532E-04   3.380371139407401E-04   3.465924015969862E-04
   3.553641565252389E-04   3.643578529374142E-04   3.735791033344962E-04
   3.830336619923704E-04   3.927274285352261E-04   4.026664515984780E-04
   4.128569325837793E-04   4.233052295079616E-04   4.340178609487461E-04
   4.450015100890302E-04   4.562630288629011E-04   4.678094422052027E-04
   4.796479524076799E-04   4.917859435842558E-04   5.042309862479388E-04
   5.169908420023744E-04   5.300734683507835E-04   5.434870236250724E-04
   5.572398720382988E-04   5.713405888633768E-04   5.857979657411195E-04
   6.006210161210061E-04   6.158189808377003E-04   6.314013338267110E-04
   6.473777879828797E-04   6.637583011647697E-04   6.805530823488855E-04
   6.977725979372769E-04   7.154275782219068E-04   7.335290240112227E-04
   7.520882134196541E-04   7.711167088281638E-04   7.906263640161591E-04
   8.106293314722088E-04   8.311380698849705E-04   8.521653518214379E-04
   8.737242715948682E-04   8.958282533283148E-04   9.184910592182184E-04
   9.417267980022440E-04   9.655499336377077E-04   9.899752941941399E-04
   1.015018080966244E-03   1.040693877811923E-03   1.067018660721296E-03
   1.094008807622160E-03   1.121681108426951E-03   1.150052775327736E-03
   1.179141453345756E-03   1.208965231138778E-03   1.239542652077068E-03
   1.270892725589474E-03   1.303034938789821E-03   1.335989268387998E-03
   1.369776192893692E-03   1.404416705119502E-03   1.439932324989324E-03
   1.476345112661581E-03   1.513677681972683E-03   1.551953214208236E-03
   1.591195472212017E-03   1.631428814837143E-03   1.672678211751025E-03
   1.714969258598728E-03   1.758328192536740E-03   1.802781908142863E-03
   1.848357973711950E-03   1.895084647947247E-03   1.942990897054870E-03
   1.992106412251982E-03   2.042461627697249E-03   2.094087738853721E-03
   2.147016721294379E-03   2.201281349958633E-03   2.256915218872511E-03
   2.313952761341206E-03   2.372429270624342E-03   2.432380921107133E-03
   2.493844789975293E-03   2.556858879407236E-03   2.621462139294222E-03
   2.687694490500202E-03   2.755596848672887E-03   2.825211148618351E-03
   2.896580369251680E-03   2.969748559136128E-03   3.044760862622209E-03
   3.121663546602294E-03   3.200504027890326E-03   3.281330901243658E-03
   3.364193968037327E-03   3.449144265606541E-03   3.536234097270655E-03
   3.625517063052129E-03   3.717048091106720E-03   3.810883469876590E-03
   3.907080880984194E-03   4.005699432878770E-03   4.106799695253616E-03
   4.210443734246496E-03   4.316695148441369E-03   4.425619105684508E-03
   4.537282380732945E-03   4.651753393749980E-03   4.769102249664167E-03
   4.889400778407858E-03   5.012722576052564E-03   5.139143046855777E-03
   5.268739446237646E-03   5.401590924703761E-03   5.537778572729727E-03
   5.677385466625882E-03   5.820496715398063E-03   5.967199508621358E-03
   6.117583165344517E-03   6.271739184041064E-03   6.429761293624108E-03
   6.591745505542354E-03   6.757790166973390E-03   6.927996015131348E-03
   7.102466232704268E-03   7.281306504439717E-03   7.464625074892780E-03
   7.652532807353306E-03   7.845143243967297E-03   8.042572667069172E-03
   8.244940161738221E-03   8.452367679595115E-03   8.664980103851647E-03
   8.882905315628277E-03   9.106274261551734E-03   9.335221022645491E-03
   9.569882884525462E-03   9.810400408910649E-03   1.005691750646084E-02
   1.030958151094892E-02   1.056854325477765E-02   1.083395714584800E-02
   1.110598124578454E-02   1.138477734952414E-02   1.167051106627168E-02
   1.196335190182376E-02   1.226347334226370E-02   1.257105293902417E-02
   1.288627239531854E-02   1.320931765393306E-02   1.354037898637608E-02
   1.387965108337467E-02   1.422733314670852E-02   1.458362898236703E-02
   1.494874709501521E-02   1.532290078374805E-02   1.570630823911470E-02
   1.609919264138351E-02   1.650178226002480E-02   1.691431055437628E-02
   1.733701627545742E-02   1.777014356889360E-02   1.821394207890517E-02
   1.866866705331575E-02   1.913457944952465E-02   1.961194604138707E-02
   2.010103952693867E-02   2.060213863689572E-02   2.111552824385577E-02
   2.164149947211871E-02   2.218034980804003E-02   2.273238321082127E-02
   2.329791022363707E-02   2.387724808498702E-02   2.447072084015644E-02
   2.507865945265745E-02   2.570140191551625E-02   2.633929336225971E-02
   2.699268617744689E-02   2.766194010657932E-02   2.834742236521220E-02
   2.904950774707848E-02   2.976857873102341E-02   3.050502558653667E-02
   3.125924647765374E-02   3.203164756498431E-02   3.282264310561223E-02
   3.363265555059194E-02   3.446211563975607E-02   3.531146249352551E-02
   3.618114370139876E-02   3.707161540677960E-02   3.798334238777779E-02
   3.891679813360313E-02   3.987246491614707E-02   4.085083385632592E-02
   4.185240498473511E-02   4.287768729614192E-02   4.392719879731563E-02
   4.500146654767024E-02   4.610102669216518E-02   4.722642448588370E-02
   4.837821430967426E-02   4.955695967621503E-02   5.076323322582406E-02
   5.199761671130806E-02   5.326070097110538E-02   5.455308588994467E-02
   5.587538034620208E-02   5.722820214510317E-02   5.861217793687248E-02
   6.002794311889617E-02   6.147614172091696E-02   6.295742627223978E-02
   6.447245764987858E-02   6.602190490652936E-02   6.760644507720592E-02
   6.922676296332443E-02   7.088355089297395E-02   7.257750845605736E-02
   7.430934221293012E-02   7.607976537511768E-02   7.788949745662575E-02
   7.973926389431042E-02   8.162979563571290E-02   8.356182869270118E-02
   8.553610365921024E-02   8.755336519129937E-02   8.961436144769799E-02
   9.171984348893658E-02   9.387056463310642E-02   9.606727976622501E-02
   9.831074460512272E-02   1.006017149107069E-01   1.029409456493935E-01
   1.053291901004413E-01   1.077671989068608E-01   1.102557190675121E-01
   1.127954928679520E-01   1.153872567475368E-01   1.180317401002331E-01
   1.207296640065445E-01   1.234817398939152E-01   1.262886681229342E-01
   1.291511364966266E-01   1.320698186900893E-01   1.350453725977059E-01
   1.380784385951585E-01   1.411696377134464E-01   1.443195697221219E-01
   1.475288111189629E-01   1.507979130233250E-01   1.541273989704433E-01
   1.575177626040086E-01   1.609694652643937E-01   1.644829334699869E-01
   1.680585562891815E-01   1.716966826006776E-01   1.753976182398914E-01
   1.791616230294127E-01   1.829889076916312E-01   1.868796306418578E-01
   1.908338946604856E-01   1.948517434430134E-01   1.989331580270201E-01
   2.030780530955230E-01   2.072862731565095E-01   2.115575885988123E-01
   2.158916916249720E-01   2.202881920621754E-01   2.247466130529165E-01
   2.292663866275959E-01   2.338468491618896E-01   2.384872367224327E-01
   2.431866803050692E-01   2.479442009707430E-01   2.527587048849674E-01
   2.576289782677173E-01   2.625536822616165E-01   2.675313477273283E-01
   2.725603699762145E-01   2.776390034515460E-01   2.827653563708130E-01
   2.879373853430926E-01   2.931528899768415E-01   2.984095074950386E-01
   3.037047073762147E-01   3.090357860415752E-01   3.143998616102387E-01
   3.197938687464285E-01   3.252145536244154E-01   3.306584690390148E-01
   3.361219696914980E-01   3.416012076829636E-01   3.470921282493761E-01
   3.525904657747616E-01   3.580917401213555E-01   3.635912533177900E-01
   3.690840866488124E-01   3.745650981923240E-01   3.800289208519067E-01
   3.854699609353002E-01   3.908823973315229E-01   3.962601813415428E-01
   4.015970372194168E-01   4.068864634827765E-01   4.121217350532774E-01
   4.172959062891417E-01   4.224018149732445E-01   4.274320873211284E-01
   4.323791440739898E-01   4.372352077418899E-01   4.419923110621827E-01
   4.466423067374052E-01   4.511768785154696E-01   4.555875536729692E-01
   4.598657169596174E-01   4.640026260581911E-01   4.679894286098366E-01
   4.718171808490194E-01   4.754768678857616E-01   4.789594256649689E-01
   4.822557646234846E-01   4.853567950550019E-01   4.882534541809057E-01
   4.909367349115115E-01   4.933977162668518E-01   4.956275954090582E-01
   4.976177212194481E-01   4.993596293325067E-01   5.008450785160617E-01
   5.020660882619836E-01   5.030149774246826E-01   5.036844037155408E-01
   5.040674038301606E-01   5.041574339520491E-01   5.039484103411254E-01
   5.034347496783662E-01   5.026114087991798E-01   5.014739234079301E-01
   5.000184453247075E-01   4.982417777733140E-01   4.961414081769368E-01
   4.937155378856061E-01   4.909631082179168E-01   4.878838221592938E-01
   4.844781610211326E-01   4.807473953303769E-01   4.766935891884959E-01
   4.723195973136497E-01   4.676290539612868E-01   4.626263529080027E-01
   4.573166176827745E-01   4.517056612403123E-01   4.457999342951924E-01
   4.396064615744980E-01   4.331327653030519E-01   4.263867753111661E-01
   4.193767252523016E-01   4.121110345395976E-01   4.045981757580360E-01
   3.968465274854294E-01   3.888642126626919E-01   3.806589228938545E-01
   3.722377293311036E-01   3.636068811110308E-01   3.547715926565680E-01
   3.457358215453707E-01   3.365020390695070E-01   3.270709960727184E-01
   3.174414871482534E-01   3.076110361037066E-01   2.975792856620495E-01
   2.873466211908723E-01   2.769134544872440E-01   2.662802229899541E-01
   2.554473890847475E-01   2.444154395056554E-01   2.331848848350682E-01
   2.217562591047298E-01   2.101301194993657E-01   1.983070461641692E-01
   1.862876421168920E-01   1.740725332647907E-01   1.616623685261995E-01
   1.490578200560055E-01   1.362595835738224E-01   1.232683787931760E-01
   1.100849499495487E-01   9.671006642466698E-02   8.314452346396028E-02
   6.938914298368526E-02   5.544477446378499E-02   4.131229592214628E-02
   2.699261496552900E-02   1.248666991207336E-02  -2.204569020056650E-03
  -1.708009846365971E-02  -3.213888059917983E-02  -4.737984180342583E-02
  -6.280187125691626E-02  -7.840381951665761E-02  -9.418449706135466E-02
  -1.101426728162122E-01  -1.262770726646167E-01  -1.425863779540842E-01
  -1.590692240039273E-01  -1.757241986221224E-01  -1.925498406388632E-01
  -2.095446384642424E-01  -2.267070286774411E-01  -2.440353946546939E-01
  -2.615280652431614E-01  -2.791833134876625E-01  -2.969993554170119E-01
  -3.149743488964574E-01  -3.331063925524325E-01  -3.513935247755225E-01
  -3.698337228071891E-01  -3.884249019154122E-01  -4.071649146639882E-01
  -4.260515502797642E-01  -4.450825341216051E-01  -4.642555272543621E-01
  -4.835681261305604E-01  -5.030178623819369E-01  -5.226022027223370E-01
  -5.423185489628367E-01  -5.621642381392714E-01  -5.821365427516507E-01
  -6.022326711141941E-01  -6.224497678139700E-01  -6.427849142753188E-01
  -6.632351294264349E-01  -6.837973704636372E-01  -7.044685337079957E-01
  -7.252454555481004E-01  -7.461249134618513E-01  -7.671036271092221E-01
  -7.881782594870151E-01  -8.093454181356626E-01  -8.306016563871589E-01
  -8.519434746422273E-01  -8.733673216638289E-01  -8.948695958731209E-01
  -9.164466466329623E-01  -9.380947755030572E-01  -9.598102374498093E-01
  -9.815892419929566E-01  -1.003427954270044E+00  -1.025322495998802E+00
  -1.047268946316495E+00  -1.069263342474368E+00  -1.091301680364302E+00
  -1.113379914853935E+00  -1.135493959905511E+00  -1.157639688452931E+00
  -1.179812932010534E+00  -1.202009479986432E+00  -1.224225078672366E+00
  -1.246455429881393E+00  -1.268696189204022E+00  -1.290942963852806E+00
  -1.313191310064857E+00  -1.335436730031276E+00  -1.357674668322070E+00
  -1.379900507774804E+00  -1.402109564815014E+00  -1.424297084176224E+00
  -1.446458232987372E+00  -1.468588094195520E+00  -1.490681659291835E+00
  -1.512733820309156E+00  -1.534739361059838E+00  -1.556692947583095E+00
  -1.578589117771761E+00  -1.600422270149177E+00  -1.622186651767914E+00
  -1.643876345203163E+00  -1.665485254614943E+00  -1.687007090854758E+00
  -1.708435355594017E+00  -1.729763324453418E+00  -1.750984029114559E+00
  -1.772090238397373E+00  -1.793074438289489E+00  -1.813928810916401E+00
  -1.834645212444366E+00  -1.855215149911202E+00  -1.875629756983745E+00
  -1.895879768644546E+00  -1.915955494814537E+00  -1.935846792922860E+00
  -1.955543039439795E+00  -1.975033100393900E+00  -1.994305300899884E+00
  -2.013347393729617E+00  -2.032146526964892E+00  -2.050689210777185E+00
  -2.068961283386680E+00  -2.086947876260332E+00  -2.104633378616637E+00
  -2.122001401313180E+00  -2.139034740201901E+00  -2.155715339046400E+00
  -2.172024252105482E+00  -2.187941606497589E+00  -2.203446564471726E+00
  -2.218517285722064E+00  -2.233130889895514E+00  -2.247263419454321E+00
  -2.260889803069078E+00  -2.273983819731534E+00  -2.286518063791204E+00
  -2.298463911135070E+00  -2.309791486745570E+00  -2.320469633888712E+00
  -2.330465885201390E+00  -2.339746435964928E+00  -2.348276119870480E+00
  -2.356018387601164E+00  -2.362935288575707E+00  -2.368987456218890E+00
  -2.374134097145205E+00  -2.378332984663790E+00  -2.381540457034902E+00
  -2.383711420930854E+00  -2.384799360577396E+00  -2.384756353074891E+00
  -2.383533090416124E+00  -2.381078908746461E+00  -2.377341825484064E+00
  -2.372268584847695E+00  -2.365804712324778E+00  -2.357894578946306E+00
  -2.348481475869368E+00  -2.337507699873655E+00  -2.324914650692250E+00
  -2.310642940749114E+00  -2.294632518101720E+00  -2.276822803308673E+00
  -2.257152841090843E+00  -2.235571978201474E+00  -2.212062814052902E+00
  -2.186596407056147E+00  -2.159084711590566E+00  -2.129472117001559E+00
  -2.097694158364817E+00  -2.063689092083838E+00  -2.027396611565164E+00
  -1.988758280778014E+00  -1.947717873378433E+00  -1.904221729911741E+00
  -1.858219138404151E+00  -1.809662738112578E+00  -1.758508946769544E+00
  -1.704718411804809E+00  -1.648256485563336E+00  -1.589093724594876E+00
  -1.527206412875285E+00  -1.462577108658187E+00  -1.395195214458797E+00
  -1.325057569453645E+00  -1.252169063337605E+00  -1.176543270411598E+00
  -1.098203102379301E+00  -1.017181478007813E+00  -9.335220074542753E-01
  -8.472796886767658E-01  -7.585216129325018E-01  -6.673276759186471E-01
  -5.737912906303348E-01  -4.780200974966218E-01  -3.801366668080842E-01
  -2.802791878701240E-01  -1.786021387047437E-01  -7.527692948205929E-02
   2.950748780673825E-02   1.355440516180710E-01   2.426070739658739E-01
   3.504517840058902E-01   4.588139424728196E-01   5.674095380991282E-01
   6.759345778920047E-01   7.840649838807405E-01   8.914566096602394E-01
   9.977453907352823E-01   1.102547643300808E+00   1.205460526660264E+00
   1.306062684969640E+00   1.403915084379662E+00   1.498562061911474E+00
   1.589532602518368E+00   1.676341860732204E+00   1.758492943040352E+00
   1.835478966657481E+00   1.906785409614748E+00   1.971892766053178E+00
   2.030279519243390E+00   2.081425443123799E+00   2.124815241016778E+00
   2.159942527609334E+00   2.186314157234042E+00   2.203454897920772E+00
   2.210912446575145E+00   2.208262775943665E+00   2.195115798719780E+00
   2.171121328206890E+00   2.135975308367215E+00   2.089426278841869E+00
   2.031282032630002E+00   1.961416415578521E+00   1.879776207688433E+00
   1.786388016536106E+00   1.681365102904161E+00   1.564914048106280E+00
   1.437341161586809E+00   1.299058516321721E+00   1.150589488514803E+00
   9.925736672777918E-01   8.257709896472474E-01   6.510649467035036E-01
   4.694646980368208E-01   2.821059247117319E-01   9.025024561168307E-02
  -1.047169809590372E-01  -3.012906488048942E-01  -4.978518639066531E-01
  -6.926760416661490E-01  -8.839432988589446E-01  -1.069751281808712E+00
  -1.248130550807906E+00  -1.417062613301455E+00  -1.574500664314535E+00
  -1.718393051591524E+00  -1.846709434555040E+00  -1.957469550239155E+00
  -2.048774435692991E+00  -2.118839885065797E+00  -2.166031840968328E+00
  -2.188903334316052E+00  -2.186232495559052E+00  -2.157061064200316E+00
  -2.100732724394726E+00  -2.016930494228661E+00  -1.905712297487010E+00
  -1.767543752287460E+00  -1.603327124366455E+00  -1.414425318000809E+00
  -1.202679718985877E+00  -9.704206666460132E-01  -7.204693207754993E-01
  -4.561297102179852E-01  -1.811698081441971E-01   1.002094194044264E-01
   3.834178951178095E-01   6.635339422067849E-01   9.353758656949888E-01
   1.193587721617488E+00   1.432739010184140E+00   1.647437585932393E+00
   1.832454577373855E+00   1.982859556739614E+00   2.094163606613127E+00
   2.162467307730458E+00   2.184610038352071E+00   2.158316352032532E+00
   2.082334613426835E+00   1.956562551393175E+00   1.782153969484480E+00
   1.561600573717379E+00   1.298782776397302E+00   9.989834539131742E-01
   6.688590161942748E-01   3.163628233858164E-01  -4.938300691134131E-02
  -4.182699975825458E-01  -7.794407856720060E-01  -1.121580457325734E+00
  -1.433258108527497E+00  -1.703312285822311E+00  -1.921271034325674E+00
  -2.077794238081743E+00  -2.165122911320045E+00  -2.177517249096783E+00
  -2.111662760484732E+00  -1.967021898266942E+00  -1.746107493192785E+00
  -1.454654230958870E+00  -1.101665600764635E+00  -6.993163952065623E-01
  -2.626951073357423E-01   1.906234600146974E-01   6.411773872464085E-01
   1.068381392554953E+00   1.451437317497910E+00   1.770361991724652E+00
   2.007091236605394E+00   2.146607237919950E+00   2.178026220915517E+00
   2.095575289129942E+00   1.899382503847804E+00   1.596003848654479E+00
   1.198615622622109E+00   7.268118247386893E-01   2.059637103998250E-01
  -3.338770366158731E-01  -8.595196747139177E-01  -1.336573105023293E+00
  -1.731696233669709E+00  -2.015035412464031E+00  -2.162688310107198E+00
  -2.159004205287991E+00  -1.998512193828478E+00  -1.687265284231158E+00
    </PP_PSWFC.4>
  </PP_FULL_WFC>
  <PP_RHOATOM size="1095">
   1.137568158229966E-07   1.166365835443152E-07   1.195892529437730E-07
   1.226166695367121E-07   1.257207255579482E-07   1.289033611444791E-07
   1.321665655481380E-07   1.355123783789418E-07   1.389428908799165E-07
   1.424602472341959E-07   1.460666459052073E-07   1.497643410107864E-07
   1.535556437320778E-07   1.574429237581009E-07   1.614286107668880E-07
   1.655151959441132E-07   1.697052335401705E-07   1.740013424666666E-07
   1.784062079333303E-07   1.829225831263613E-07   1.875532909292644E-07
   1.923012256872498E-07   1.971693550162979E-07   2.021607216580209E-07
   2.072784453814827E-07   2.125257249331601E-07   2.179058400362713E-07
   2.234221534407156E-07   2.290781130249093E-07   2.348772539508294E-07
   2.408232008736118E-07   2.469196702070878E-07   2.531704724466715E-07
   2.595795145510536E-07   2.661508023841872E-07   2.728884432190923E-07
   2.797966483050458E-07   2.868797354997611E-07   2.941421319682011E-07
   3.015883769497131E-07   3.092231245952128E-07   3.170511468761949E-07
   3.250773365673837E-07   3.333067103048916E-07   3.417444117217991E-07
   3.503957146631036E-07   3.592660264820655E-07   3.683608914199967E-07
   3.776859940716128E-07   3.872471629381086E-07   3.970503740701816E-07
   4.071017548032826E-07   4.174075875874214E-07   4.279743139139270E-07
   4.388085383416192E-07   4.499170326248945E-07   4.613067399463245E-07
   4.729847792564015E-07   4.849584497231442E-07   4.972352352943526E-07
   5.098228093753468E-07   5.227290396251396E-07   5.359619928740120E-07
   5.495299401655887E-07   5.634413619265533E-07   5.777049532672325E-07
   5.923296294163719E-07   6.073245312934941E-07   6.226990312223219E-07
   6.384627387888448E-07   6.546255068476739E-07   6.711974376804626E-07
   6.881888893102223E-07   7.056104819754917E-07   7.234731047684064E-07
   7.417879224408010E-07   7.605663823826278E-07   7.798202217770264E-07
   7.995614749365307E-07   8.198024808250034E-07   8.405558907699726E-07
   8.618346763702348E-07   8.836521376036240E-07   9.060219111400457E-07
   9.289579788649542E-07   9.524746766186069E-07   9.765867031565601E-07
   1.001309129337005E-06   1.026657407540685E-06   1.052647381329291E-06
   1.079295295348352E-06   1.106617805480838E-06   1.134631989257796E-06
   1.163355356532553E-06   1.192805860425134E-06   1.223001908543739E-06
   1.253962374490317E-06   1.285706609657404E-06   1.318254455323599E-06
   1.351626255055274E-06   1.385842867422196E-06   1.420925679035105E-06
   1.456896617913317E-06   1.493778167190753E-06   1.531593379168953E-06
   1.570365889725828E-06   1.610119933089219E-06   1.650880356984437E-06
   1.692672638165283E-06   1.735522898338268E-06   1.779457920489937E-06
   1.824505165627562E-06   1.870692789943642E-06   1.918049662414928E-06
   1.966605382847000E-06   2.016390300375646E-06   2.067435532436644E-06
   2.119772984215768E-06   2.173435368591209E-06   2.228456226580866E-06
   2.284869948307252E-06   2.342711794493197E-06   2.402017918501719E-06
   2.462825388933862E-06   2.525172212798660E-06   2.589097359269619E-06
   2.654640784042689E-06   2.721843454310880E-06   2.790747374371109E-06
   2.861395611879394E-06   2.933832324770657E-06   3.008102788860117E-06
   3.084253426143417E-06   3.162331833813218E-06   3.242386814010441E-06
   3.324468404328639E-06   3.408627909090707E-06   3.494917931417391E-06
   3.583392406107679E-06   3.674106633351634E-06   3.767117313296692E-06
   3.862482581489137E-06   3.960262045212789E-06   4.060516820747748E-06
   4.163309571572375E-06   4.268704547532440E-06   4.376767625001963E-06
   4.487566348060800E-06   4.601169970714721E-06   4.717649500184448E-06
   4.837077741290590E-06   4.959529341962341E-06   5.085080839898350E-06
   5.213810710408935E-06   5.345799415469554E-06   5.481129454016171E-06
   5.619885413514050E-06   5.762154022832129E-06   5.908024206456083E-06
   6.057587140073979E-06   6.210936307569188E-06   6.368167559456357E-06
   6.529379172796803E-06   6.694671912630912E-06   6.864149094965948E-06
   7.037916651358475E-06   7.216083195132161E-06   7.398760089271922E-06
   7.586061516037143E-06   7.778104548337546E-06   7.975009222915950E-06
   8.176898615384326E-06   8.383898917159377E-06   8.596139514346253E-06
   8.813753068619608E-06   9.036875600152250E-06   9.265646572643990E-06
   9.500208980502915E-06   9.740709438234387E-06   9.987298272093347E-06
   1.024012961405707E-05   1.049936149817771E-05   1.076515595937411E-05
   1.103767913472538E-05   1.131710136732928E-05   1.160359731279005E-05
   1.189734604840323E-05   1.219853118510455E-05   1.250734098225386E-05
   1.282396846532555E-05   1.314861154657883E-05   1.348147314878401E-05
   1.382276133208130E-05   1.417268942405233E-05   1.453147615308523E-05
   1.489934578511671E-05   1.527652826383718E-05   1.566325935444581E-05
   1.605978079104625E-05   1.646634042777485E-05   1.688319239375565E-05
   1.731059725198000E-05   1.774882216220894E-05   1.819814104800147E-05
   1.865883476797260E-05   1.913119129138799E-05   1.961550587820629E-05
   2.011208126368033E-05   2.062122784763373E-05   2.114326388853127E-05
   2.167851570246349E-05   2.222731786717183E-05   2.279001343124012E-05
   2.336695412858467E-05   2.395850059837663E-05   2.456502261053415E-05
   2.518689929692627E-05   2.582451938843207E-05   2.647828145800449E-05
   2.714859416989068E-05   2.783587653516422E-05   2.854055817373080E-05
   2.926307958296933E-05   3.000389241317832E-05   3.076345974999953E-05
   3.154225640399481E-05   3.234076920755951E-05   3.315949731935583E-05
   3.399895253645884E-05   3.485965961441006E-05   3.574215659537786E-05
   3.664699514463265E-05   3.757474089554494E-05   3.852597380332433E-05
   3.950128850772051E-05   4.050129470491239E-05   4.152661752882070E-05
   4.257789794208007E-05   4.365579313691833E-05   4.476097694619232E-05
   4.589414026483813E-05   4.705599148200151E-05   4.824725692411625E-05
   4.946868130921134E-05   5.072102821272991E-05   5.200508054515213E-05
   5.332164104172231E-05   5.467153276458615E-05   5.605559961765379E-05
   5.747470687451193E-05   5.892974171971407E-05   6.042161380379134E-05
   6.195125581232906E-05   6.351962404946828E-05   6.512769903619758E-05
   6.677648612380949E-05   6.846701612290848E-05   7.020034594836327E-05
   7.197755928060985E-05   7.379976724371924E-05   7.566810910065542E-05
   7.758375296616169E-05   7.954789653772042E-05   8.156176784504750E-05
   8.362662601859130E-05   8.574376207751773E-05   8.791449973767901E-05
   9.014019624007103E-05   9.242224320030094E-05   9.476206747960034E-05
   9.716113207792768E-05   9.962093704972580E-05   1.021430204429066E-04
   1.047289592616556E-04   1.073803704536604E-04   1.100989119223852E-04
   1.128862835650269E-04   1.157442283368070E-04   1.186745333422677E-04
   1.216790309542612E-04   1.247595999613330E-04   1.279181667442262E-04
   1.311567064822431E-04   1.344772443902268E-04   1.378818569869422E-04
   1.413726733956526E-04   1.449518766777151E-04   1.486217052000323E-04
   1.523844540372258E-04   1.562424764094127E-04   1.601981851564921E-04
   1.642540542498746E-04   1.684126203426051E-04   1.726764843588603E-04
   1.770483131238219E-04   1.815308410349570E-04   1.861268717757593E-04
   1.908392800730349E-04   1.956710134988444E-04   2.006250943182383E-04
   2.057046213839540E-04   2.109127720792770E-04   2.162528043102886E-04
   2.217280585487676E-04   2.273419599270364E-04   2.330980203860764E-04
   2.389998408782786E-04   2.450511136262197E-04   2.512556244388990E-04
   2.576172550869059E-04   2.641399857380208E-04   2.708278974547990E-04
   2.776851747557213E-04   2.847161082415383E-04   2.919250972884776E-04
   2.993166528100249E-04   3.068954000890368E-04   3.146660816819841E-04
   3.226335603971781E-04   3.308028223488732E-04   3.391789800891905E-04
   3.477672758198643E-04   3.565730846858512E-04   3.656019181529092E-04
   3.748594274713003E-04   3.843514072278314E-04   3.940837989884939E-04
   4.040626950340450E-04   4.142943421909087E-04   4.247851457598527E-04
   4.355416735449591E-04   4.465706599854640E-04   4.578790103931231E-04
   4.694738052978176E-04   4.813623049041910E-04   4.935519536621800E-04
   5.060503849543756E-04   5.188654259032354E-04   5.320051023012336E-04
   5.454776436671337E-04   5.592914884316399E-04   5.734552892557628E-04
   5.879779184853552E-04   6.028684737453236E-04   6.181362836771390E-04
   6.337909138233713E-04   6.498421726630342E-04   6.663001178016832E-04
   6.831750623202655E-04   7.004775812868472E-04   7.182185184354656E-04
   7.364089930164239E-04   7.550604068225267E-04   7.741844513958145E-04
   7.937931154195034E-04   8.138986922999693E-04   8.345137879437294E-04
   8.556513287345120E-04   8.773245697156557E-04   8.995471029831901E-04
   9.223328662951390E-04   9.456961519026722E-04   9.696516156089687E-04
   9.942142860617290E-04   1.019399574285490E-03   1.045223283460054E-03
   1.071701618951471E-03   1.098851198602281E-03   1.126689063287788E-03
   1.155232687745439E-03   1.184499991684490E-03   1.214509351183356E-03
   1.245279610382301E-03   1.276830093479251E-03   1.309180617036777E-03
   1.342351502608536E-03   1.376363589693600E-03   1.411238249027466E-03
   1.446997396218652E-03   1.483663505740142E-03   1.521259625285122E-03
   1.559809390496754E-03   1.599337040081999E-03   1.639867431319786E-03
   1.681426055974092E-03   1.724039056622823E-03   1.767733243413691E-03
   1.812536111258548E-03   1.858475857478060E-03   1.905581399908857E-03
   1.953882395485661E-03   2.003409259311298E-03   2.054193184227778E-03
   2.106266160902112E-03   2.159660998440860E-03   2.214411345547788E-03
   2.270551712239549E-03   2.328117492134533E-03   2.387144985330697E-03
   2.447671421888489E-03   2.509734985935490E-03   2.573374840409938E-03
   2.638631152460707E-03   2.705545119521944E-03   2.774158996080995E-03
   2.844516121158897E-03   2.916660946523228E-03   2.990639065653666E-03
   3.066497243481380E-03   3.144283446923771E-03   3.224046876236909E-03
   3.305837997208653E-03   3.389708574216032E-03   3.475711704171342E-03
   3.563901851382030E-03   3.654334883350266E-03   3.747068107538882E-03
   3.842160309131152E-03   3.939671789812791E-03   4.039664407605379E-03
   4.142201617781349E-03   4.247348514891583E-03   4.355171875937688E-03
   4.465740204721970E-03   4.579123777409192E-03   4.695394689335289E-03
   4.814626903099330E-03   4.936896297976035E-03   5.062280720687633E-03
   5.190860037574806E-03   5.322716188207832E-03   5.457933240480502E-03
   5.596597447230462E-03   5.738797304431390E-03   5.884623611003617E-03
   6.034169530291511E-03   6.187530653257431E-03   6.344805063443602E-03
   6.506093403755278E-03   6.671498945119951E-03   6.841127657079377E-03
   7.015088280373151E-03   7.193492401574201E-03   7.376454529839118E-03
   7.564092175837816E-03   7.756525932929522E-03   7.953879560654386E-03
   8.156280070611994E-03   8.363857814801022E-03   8.576746576496402E-03
   8.795083663743134E-03   9.019010005548677E-03   9.248670250858453E-03
   9.484212870402272E-03   9.725790261502181E-03   9.973558855935627E-03
   1.022767923095111E-02   1.048831622353662E-02   1.075563904804507E-02
   1.102982141728449E-02   1.131104166718429E-02   1.159948288515326E-02
   1.189533304224874E-02   1.219878512928093E-02   1.251003729698054E-02
   1.282929300036261E-02   1.315676114742436E-02   1.349265625231924E-02
   1.383719859315534E-02   1.419061437457112E-02   1.455313589524693E-02
   1.492500172051697E-02   1.530645686025188E-02   1.569775295218855E-02
   1.609914845089047E-02   1.651090882252796E-02   1.693330674567539E-02
   1.736662231832875E-02   1.781114327135571E-02   1.826716518859680E-02
   1.873499173384506E-02   1.921493488494029E-02   1.970731517522139E-02
   2.021246194259105E-02   2.073071358645515E-02   2.126241783280910E-02
   2.180793200775446E-02   2.236762331973780E-02   2.294186915081679E-02
   2.353105735726779E-02   2.413558657986218E-02   2.475586656415058E-02
   2.539231849110532E-02   2.604537531848710E-02   2.671548213331259E-02
   2.740309651581514E-02   2.810868891530542E-02   2.883274303835187E-02
   2.957575624971927E-02   3.033823998651714E-02   3.112072018602733E-02
   3.192373772769772E-02   3.274784888980531E-02   3.359362582131187E-02
   3.446165702945328E-02   3.535254788362278E-02   3.626692113613019E-02
   3.720541746043744E-02   3.816869600749507E-02   3.915743498082384E-02
   4.017233223100963E-02   4.121410587030379E-02   4.228349490804317E-02
   4.338125990763116E-02   4.450818366584494E-02   4.566507191526077E-02
   4.685275405061647E-02   4.807208387995565E-02   4.932394040143009E-02
   5.060922860666120E-02   5.192888031159438E-02   5.328385501580788E-02
   5.467514079126876E-02   5.610375520156122E-02   5.757074625264227E-02
   5.907719337621230E-02   6.062420844682267E-02   6.221293683387105E-02
   6.384455848967434E-02   6.552028907483712E-02   6.724138112217082E-02
   6.900912524045089E-02   7.082485135933329E-02   7.268993001678573E-02
   7.460577369042216E-02   7.657383817416144E-02   7.859562400166498E-02
   8.067267791803660E-02   8.280659440130386E-02   8.499901723522449E-02
   8.725164113499315E-02   8.956621342744932E-02   9.194453578741092E-02
   9.438846603178461E-02   9.689991997311899E-02   9.948087333428833E-02
   1.021333637260066E-01   1.048594926888818E-01   1.076614278017294E-01
   1.105414048578625E-01   1.135017301110751E-01   1.165447825930262E-01
   1.196730165037137E-01   1.228889636767103E-01   1.261952361207991E-01
   1.295945286396109E-01   1.330896215308150E-01   1.366833833663599E-01
   1.403787738551888E-01   1.441788467897765E-01   1.480867530777341E-01
   1.521057438596267E-01   1.562391737140140E-01   1.604905039505918E-01
   1.648633059921447E-01   1.693612648458409E-01   1.739881826641997E-01
   1.787479823958295E-01   1.836447115257931E-01   1.886825459051668E-01
   1.938657936690570E-01   1.991988992419998E-01   2.046864474292864E-01
   2.103331675923594E-01   2.161439379059614E-01   2.221237896942372E-01
   2.282779118424502E-01   2.346116552803853E-01   2.411305375328887E-01
   2.478402473322939E-01   2.547466492867442E-01   2.618557885976164E-01
   2.691738958183688E-01   2.767073916462134E-01   2.844628917369871E-01
   2.924472115325080E-01   3.006673710885447E-01   3.091305998902555E-01
   3.178443416406276E-01   3.268162590060010E-01   3.360542383012200E-01
   3.455663940953403E-01   3.553610737170399E-01   3.654468616370692E-01
   3.758325837030652E-01   3.865273111999924E-01   3.975403647072470E-01
   4.088813177211102E-01   4.205600000087952E-01   4.325865006576887E-01
   4.449711707806757E-01   4.577246258355466E-01   4.708577475134503E-01
   4.843816851482340E-01   4.983078565951738E-01   5.126479485241849E-01
   5.274139160690189E-01   5.426179817702429E-01   5.582726337459789E-01
   5.743906230204122E-01   5.909849599360136E-01   6.080689095712714E-01
   6.256559860814390E-01   6.437599458755352E-01   6.623947795383971E-01
   6.815747024022198E-01   7.013141436675834E-01   7.216277339695732E-01
   7.425302912802860E-01   7.640368050347406E-01   7.861624183631367E-01
   8.089224083084710E-01   8.323321639048183E-01   8.564071619882427E-01
   8.811629406092220E-01   9.066150699129230E-01   9.327791203515625E-01
   9.596706280916021E-01   9.873050574777874E-01   1.015697760416008E+00
   1.044863932537923E+00   1.074818566012252E+00   1.105576398870729E+00
   1.137151860721206E+00   1.169559014726220E+00   1.202811495732828E+00
   1.236922444448827E+00   1.271904437571604E+00   1.307769413789306E+00
   1.344528595589589E+00   1.382192406829480E+00   1.420770386040736E+00
   1.460271095468921E+00   1.500702025871500E+00   1.542069497130368E+00
   1.584378554768259E+00   1.627632862496046E+00   1.671834590959321E+00
   1.716984302898517E+00   1.763080834986423E+00   1.810121176661357E+00
   1.858100346333022E+00   1.907011265401012E+00   1.956844630594149E+00
   2.007588785210671E+00   2.059229589916198E+00   2.111750293837261E+00
   2.165131406772690E+00   2.219350573433869E+00   2.274382450715895E+00
   2.330198589095758E+00   2.386767319349265E+00   2.444053645874511E+00
   2.502019148006260E+00   2.560621890799690E+00   2.619816346853809E+00
   2.679553330831677E+00   2.739779948414486E+00   2.800439561498398E+00
   2.861471771502710E+00   2.922812422704418E+00   2.984393627543443E+00
   3.046143815851498E+00   3.107987809943310E+00   3.169846927466011E+00
   3.231639113828843E+00   3.293279105925268E+00   3.354678628708750E+00
   3.415746625988334E+00   3.476389526564005E+00   3.536511546521918E+00
   3.596015028149848E+00   3.654800815509279E+00   3.712768666209315E+00
   3.769817698363350E+00   3.825846871071040E+00   3.880755496052106E+00
   3.934443777263618E+00   3.986813374459999E+00   4.037767985704964E+00
   4.087213942822443E+00   4.135060812684052E+00   4.181221996082546E+00
   4.225615314746532E+00   4.268163575824722E+00   4.308795101929158E+00
   4.347444213597338E+00   4.384051649841694E+00   4.418564911333899E+00
   4.450938509758442E+00   4.481134106008569E+00   4.509120519237059E+00
   4.534873588368360E+00   4.558375867588659E+00   4.579616137620507E+00
   4.598588715329790E+00   4.615292545478157E+00   4.629730060300202E+00
   4.641905795129326E+00   4.651824751595975E+00   4.659490504050566E+00
   4.664903049888507E+00   4.668056410434342E+00   4.668935996021325E+00
   4.667515756908181E+00   4.663755150710745E+00   4.657595967067796E+00
   4.648959061248272E+00   4.637741060241294E+00   4.623840045525943E+00
   4.607252496100380E+00   4.588008076994917E+00   4.566143849368049E+00
   4.541704222557972E+00   4.514740903064057E+00   4.485312854817054E+00
   4.453486287686776E+00   4.419334693710645E+00   4.382933864611741E+00
   4.344345394582396E+00   4.303629515211084E+00   4.260849681903149E+00
   4.216072399041409E+00   4.169367037741532E+00   4.120805646935292E+00
   4.070462758534745E+00   4.018415187448604E+00   3.964741827214795E+00
   3.909523419786647E+00   3.852842282030495E+00   3.794782139164435E+00
   3.735428023753665E+00   3.674865955649224E+00   3.613182770698016E+00
   3.550465898540813E+00   3.486803153342928E+00   3.422282525685490E+00
   3.356991977731658E+00   3.291019242244215E+00   3.224451626073942E+00
   3.157375818709506E+00   3.089877706444621E+00   3.022042192682040E+00
   2.953953024856216E+00   2.885692628417607E+00   2.817341948290411E+00
   2.748980298125869E+00   2.680685217745788E+00   2.612532339000639E+00
   2.544595260261075E+00   2.476945429831718E+00   2.409652038349672E+00
   2.342781920331100E+00   2.276399464934483E+00   2.210566535979960E+00
   2.145342401227063E+00   2.080783670877086E+00   2.016944245231963E+00
   1.953875271408619E+00   1.891625108976226E+00   1.830239304354178E+00
   1.769760573780671E+00   1.710228794635670E+00   1.651681004877827E+00
   1.594151410332605E+00   1.537671399548456E+00   1.482269565919454E+00
   1.427971736756288E+00   1.374801008972934E+00   1.322777791043658E+00
   1.271919850874262E+00   1.222242369222551E+00   1.173757998295944E+00
   1.126476925148821E+00   1.080406939498632E+00   1.035553505577878E+00
   9.919198376387935E-01   9.495069787287671E-01   9.083138823573298E-01
   8.683374966796191E-01   8.295728508267528E-01   7.920131430202607E-01
   7.556498301156616E-01   7.204727182293191E-01   6.864700541127525E-01
   6.536286169496138E-01   6.219338102624162E-01   5.913697536287523E-01
   5.619193739201267E-01   5.335644957904924E-01   5.062859311561152E-01
   4.800635674233586E-01   4.548764542363374E-01   4.307028885320183E-01
   4.075204977062084E-01   3.853063207098473E-01   3.640368869110694E-01
   3.436882925745186E-01   3.242362748253346E-01   3.056562829809932E-01
   2.879235471497293E-01   2.710131440095128E-01   2.549000596964394E-01
   2.395592497458810E-01   2.249656960437478E-01   2.110944607587173E-01
   1.979207372392235E-01   1.854198978713403E-01   1.735675389054001E-01
   1.623395222702347E-01   1.517120144042776E-01   1.416615221424179E-01
   1.321649257064219E-01   1.231995088549384E-01   1.147429862565616E-01
   1.067735281561626E-01   9.926978241070243E-02   9.221089397603202E-02
   8.557652193077249E-02   7.934685412728563E-02   7.350261956299334E-02
   6.802509856793221E-02   6.289613090645194E-02   5.809812189242034E-02
   5.361404661821831E-02   4.942745239822795E-02   4.552245952747618E-02
   4.188376045562887E-02   3.849661747567697E-02   3.534685902545214E-02
   3.242087469859332E-02   2.970560905979148E-02   2.718855435710452E-02
   2.485774222188891E-02   2.270173444447141E-02   2.070961291111215E-02
   1.887096878511593E-02   1.717589101215696E-02   1.561495422701542E-02
   1.417920613600116E-02   1.286015444637985E-02   1.164975341113238E-02
   1.054039005438497E-02   9.524870139853387E-03   8.596403941660571E-03
   7.748591873919496E-03   6.975410032526949E-03   6.271195699694928E-03
   5.630632858856347E-03   5.048737764724038E-03   4.520844610457903E-03
   4.042591331105987E-03   3.609905579732427E-03   3.218990909929601E-03
   2.866313195734632E-03   2.548587317333231E-03   2.262764138338341E-03
   2.006017797879572E-03   1.775733338234615E-03   1.569494686279033E-03
   1.385073004629750E-03   1.220415426014461E-03   1.073634182118759E-03
   9.429961359500352E-04   8.269127246174975E-04   7.239303173664811E-04
   6.327209917281219E-04   5.520737287580324E-04   4.808860265451343E-04
   4.181559294794227E-04   3.629744691798011E-04   3.145185115044419E-04
   2.720440026999819E-04   2.348796064951581E-04   2.024207228113897E-04
   1.741238777486552E-04   1.495014736103188E-04   1.281168869549446E-04
   1.095799020053840E-04   9.354246620341789E-05   7.969475426906638E-05
   6.776152680361334E-05   5.749876925998274E-05   4.869059698821689E-05
   4.114641204172947E-05   3.469829749550544E-05   2.919863517385020E-05
   2.451793290567115E-05   2.054284771240110E-05   1.717439168019287E-05
   1.432630766653136E-05   1.192360243457098E-05   9.901225289075048E-06
   8.202880798778769E-06   6.779964724550234E-06   5.590612824445113E-06
   4.598852769583717E-06   3.773849973048205E-06   3.089238702706184E-06
   2.522530412629900E-06   2.054591783999066E-06   1.669185508875315E-06
   1.352567377778977E-06   1.093133741977092E-06   8.811139093615207E-07
   7.083024993847457E-07   5.678272251579239E-07   4.539479879530732E-07
   3.618835962641925E-07   2.876623661909249E-07   2.279962713408253E-07
   1.801646987762822E-07   1.419358129606696E-07   1.114760828054011E-07
   8.727918275441889E-08   6.811473132064688E-08   5.298193474065371E-08
   4.106921314996811E-08   3.172044774223040E-08   2.440685180902753E-08
   1.870360330316818E-08   1.427049560453730E-08   1.083596802650357E-08
   8.183969601744397E-09   6.143190127803206E-09   4.578262565527930E-09
   3.382601602014309E-09   2.472595328276399E-09   1.782924010894158E-09
   1.262731665762479E-09   8.740396959860672E-10   5.806386456247351E-10
   0.000000000000000E+00   0.000000000000000E+00   0.000000000000000E+00
   0.000000000000000E+00   0.000000000000000E+00   0.000000000000000E+00
   0.000000000000000E+00   0.000000000000000E+00   0.000000000000000E+00
   0.000000000000000E+00   0.000000000000000E+00   0.000000000000000E+00
   0.000000000000000E+00   0.000000000000000E+00   0.000000000000000E+00
   0.000000000000000E+00   0.000000000000000E+00   0.000000000000000E+00
   0.000000000000000E+00   0.000000000000000E+00   0.000000000000000E+00
   0.000000000000000E+00   0.000000000000000E+00   0.000000000000000E+00
   0.000000000000000E+00   0.000000000000000E+00   0.000000000000000E+00
   0.000000000000000E+00   0.000000000000000E+00   0.000000000000000E+00
   0.000000000000000E+00   0.000000000000000E+00   0.000000000000000E+00
   0.000000000000000E+00   0.000000000000000E+00   0.000000000000000E+00
   0.000000000000000E+00   0.000000000000000E+00   0.000000000000000E+00
   0.000000000000000E+00   0.000000000000000E+00   0.000000000000000E+00
   0.000000000000000E+00   0.000000000000000E+00   0.000000000000000E+00
   0.000000000000000E+00   0.000000000000000E+00   0.000000000000000E+00
   0.000000000000000E+00   0.000000000000000E+00   0.000000000000000E+00
   0.000000000000000E+00   0.000000000000000E+00   0.000000000000000E+00
   0.000000000000000E+00   0.000000000000000E+00   0.000000000000000E+00
   0.000000000000000E+00   0.000000000000000E+00   0.000000000000000E+00
   0.000000000000000E+00   0.000000000000000E+00   0.000000000000000E+00
   0.000000000000000E+00   0.000000000000000E+00   0.000000000000000E+00
   0.000000000000000E+00   0.000000000000000E+00   0.000000000000000E+00
   0.000000000000000E+00   0.000000000000000E+00   0.000000000000000E+00
   0.000000000000000E+00   0.000000000000000E+00   0.000000000000000E+00
   0.000000000000000E+00   0.000000000000000E+00   0.000000000000000E+00
   0.000000000000000E+00   0.000000000000000E+00   0.000000000000000E+00
   0.000000000000000E+00   0.000000000000000E+00   0.000000000000000E+00
   0.000000000000000E+00   0.000000000000000E+00   0.000000000000000E+00
   0.000000000000000E+00   0.000000000000000E+00   0.000000000000000E+00
   0.000000000000000E+00   0.000000000000000E+00   0.000000000000000E+00
   0.000000000000000E+00   0.000000000000000E+00   0.000000000000000E+00
   0.000000000000000E+00   0.000000000000000E+00   0.000000000000000E+00
   0.000000000000000E+00   0.000000000000000E+00   0.000000000000000E+00
   0.000000000000000E+00   0.000000000000000E+00   0.000000000000000E+00
   0.000000000000000E+00   0.000000000000000E+00   0.000000000000000E+00
   0.000000000000000E+00   0.000000000000000E+00   0.000000000000000E+00
   0.000000000000000E+00   0.000000000000000E+00   0.000000000000000E+00
   0.000000000000000E+00   0.000000000000000E+00   0.000000000000000E+00
   0.000000000000000E+00   0.000000000000000E+00   0.000000000000000E+00
   0.000000000000000E+00   0.000000000000000E+00   0.000000000000000E+00
   0.000000000000000E+00   0.000000000000000E+00   0.000000000000000E+00
   0.000000000000000E+00   0.000000000000000E+00   0.000000000000000E+00
   0.000000000000000E+00   0.000000000000000E+00   0.000000000000000E+00
   0.000000000000000E+00   0.000000000000000E+00   0.000000000000000E+00
   0.000000000000000E+00   0.000000000000000E+00   0.000000000000000E+00
   0.000000000000000E+00   0.000000000000000E+00   0.000000000000000E+00
   0.000000000000000E+00   0.000000000000000E+00   0.000000000000000E+00
   0.000000000000000E+00   0.000000000000000E+00   0.000000000000000E+00
   0.000000000000000E+00   0.000000000000000E+00   0.000000000000000E+00
   0.000000000000000E+00   0.000000000000000E+00   0.000000000000000E+00
  </PP_RHOATOM>
  <PP_PAW paw_data_format="2" core_energy="-108.88640917338138">
    <PP_OCCUPATIONS size="4">
   2.000000000000000E+00   0.000000000000000E+00   4.000000000000000E+00
   0.000000000000000E+00
    </PP_OCCUPATIONS>
    <PP_AE_NLCC size="1095">
   2.987300893097769E+02   2.987173524942617E+02   2.987046162218001E+02
   2.986918804923690E+02   2.986790577790873E+02   2.986659663019301E+02
   2.986526557356221E+02   2.986391186227444E+02   2.986253567947140E+02
   2.986113720160743E+02   2.985971659683840E+02   2.985827402530401E+02
   2.985680963927056E+02   2.985532358326450E+02   2.985381599420274E+02
   2.985228700151935E+02   2.985073672728813E+02   2.984916528634180E+02
   2.984757278638772E+02   2.984595932811962E+02   2.984432500532675E+02
   2.984266990499898E+02   2.984099410742900E+02   2.983929768631122E+02
   2.983758070883749E+02   2.983584323579007E+02   2.983408532163125E+02
   2.983230701459022E+02   2.983050835674719E+02   2.982868938411423E+02
   2.982685012671417E+02   2.982499060865610E+02   2.982311084820853E+02
   2.982121085787007E+02   2.981929064443719E+02   2.981735020907016E+02
   2.981538954735598E+02   2.981340864936918E+02   2.981140749973031E+02
   2.980938607766201E+02   2.980734435704318E+02   2.980528230646049E+02
   2.980319988925814E+02   2.980109706358534E+02   2.979897378244153E+02
   2.979682999372017E+02   2.979466564024989E+02   2.979248065983404E+02
   2.979027498528827E+02   2.978804854447607E+02   2.978580126034277E+02
   2.978353305094755E+02   2.978124382949350E+02   2.977893350435641E+02
   2.977660197911110E+02   2.977424915255694E+02   2.977187491874109E+02
   2.976947916698023E+02   2.976706178188086E+02   2.976462264335775E+02
   2.976216162665116E+02   2.975967860234232E+02   2.975717343636736E+02
   2.975464599003000E+02   2.975209612001233E+02   2.974952367838490E+02
   2.974692851261456E+02   2.974431046557146E+02   2.974166937553459E+02
   2.973900507619555E+02   2.973631739666173E+02   2.973360616145751E+02
   2.973087119052444E+02   2.972811229922023E+02   2.972532929831601E+02
   2.972252199399312E+02   2.971969018783789E+02   2.971683367683572E+02
   2.971395225336362E+02   2.971104570518171E+02   2.970811381542362E+02
   2.970515636258560E+02   2.970217312051444E+02   2.969916385839442E+02
   2.969612834073285E+02   2.969306632734489E+02   2.968997757333688E+02
   2.968686182908878E+02   2.968371884023552E+02   2.968054834764698E+02
   2.967735008740749E+02   2.967412379079371E+02   2.967086918425170E+02
   2.966758598937298E+02   2.966427392286924E+02   2.966093269654667E+02
   2.965756201727851E+02   2.965416158697716E+02   2.965073110256502E+02
   2.964727025594408E+02   2.964377873396532E+02   2.964025621839617E+02
   2.963670238588762E+02   2.963311690794012E+02   2.962949945086830E+02
   2.962584967576527E+02   2.962216723846548E+02   2.961845178950671E+02
   2.961470297409121E+02   2.961092043204571E+02   2.960710379778076E+02
   2.960325270024883E+02   2.959936676290159E+02   2.959544560364628E+02
   2.959148883480089E+02   2.958749606304889E+02   2.958346688939255E+02
   2.957940090910549E+02   2.957529771168437E+02   2.957115688079944E+02
   2.956697799424448E+02   2.956276062388548E+02   2.955850433560860E+02
   2.955420868926712E+02   2.954987323862726E+02   2.954549753131367E+02
   2.954108110875325E+02   2.953662350611855E+02   2.953212425227005E+02
   2.952758286969733E+02   2.952299887445995E+02   2.951837177612654E+02
   2.951370107771365E+02   2.950898627562329E+02   2.950422685957948E+02
   2.949942231256443E+02   2.949457211075307E+02   2.948967572344710E+02
   2.948473261300794E+02   2.947974223478865E+02   2.947470403706530E+02
   2.946961746096694E+02   2.946448194040483E+02   2.945929690200086E+02
   2.945406176501464E+02   2.944877594127015E+02   2.944343883508108E+02
   2.943804984317529E+02   2.943260835461850E+02   2.942711375073662E+02
   2.942156540503769E+02   2.941596268313248E+02   2.941030494265416E+02
   2.940459153317715E+02   2.939882179613482E+02   2.939299506473658E+02
   2.938711066388359E+02   2.938116791008380E+02   2.937516611136591E+02
   2.936910456719223E+02   2.936298256837097E+02   2.935679939696718E+02
   2.935055432621284E+02   2.934424662041611E+02   2.933787553486917E+02
   2.933144031575600E+02   2.932494020005793E+02   2.931837441545935E+02
   2.931174218025185E+02   2.930504270323726E+02   2.929827518363055E+02
   2.929143881096045E+02   2.928453276497041E+02   2.927755621551767E+02
   2.927050832247157E+02   2.926338823561157E+02   2.925619509452287E+02
   2.924892802849254E+02   2.924158615640380E+02   2.923416858662940E+02
   2.922667441692462E+02   2.921910273431830E+02   2.921145261500392E+02
   2.920372312422905E+02   2.919591331618391E+02   2.918802223388964E+02
   2.918004890908428E+02   2.917199236210920E+02   2.916385160179378E+02
   2.915562562533908E+02   2.914731341820132E+02   2.913891395397328E+02
   2.913042619426589E+02   2.912184908858813E+02   2.911318157422616E+02
   2.910442257612207E+02   2.909557100675062E+02   2.908662576599624E+02
   2.907758574102846E+02   2.906844980617624E+02   2.905921682280253E+02
   2.904988563917628E+02   2.904045509034515E+02   2.903092399800644E+02
   2.902129117037721E+02   2.901155540206435E+02   2.900171547393253E+02
   2.899177015297256E+02   2.898171819216825E+02   2.897155833036238E+02
   2.896128929212277E+02   2.895090978760628E+02   2.894041851242316E+02
   2.892981414750018E+02   2.891909535894284E+02   2.890826079789766E+02
   2.889730910041256E+02   2.888623888729786E+02   2.887504876398572E+02
   2.886373732038919E+02   2.885230313076112E+02   2.884074475355146E+02
   2.882906073126509E+02   2.881724959031849E+02   2.880530984089569E+02
   2.879323997680469E+02   2.878103847533201E+02   2.876870379709808E+02
   2.875623438591152E+02   2.874362866862292E+02   2.873088505497911E+02
   2.871800193747582E+02   2.870497769121124E+02   2.869181067373871E+02
   2.867849922491895E+02   2.866504166677311E+02   2.865143630333421E+02
   2.863768142049979E+02   2.862377528588377E+02   2.860971614866820E+02
   2.859550223945578E+02   2.858113177012125E+02   2.856660293366401E+02
   2.855191390406019E+02   2.853706283611504E+02   2.852204786531579E+02
   2.850686710768445E+02   2.849151865963128E+02   2.847600059780846E+02
   2.846031097896416E+02   2.844444783979739E+02   2.842840919681306E+02
   2.841219304617803E+02   2.839579736357760E+02   2.837922010407280E+02
   2.836245920195867E+02   2.834551257062315E+02   2.832837810240728E+02
   2.831105366846622E+02   2.829353711863128E+02   2.827582628127352E+02
   2.825791896316823E+02   2.823981294936105E+02   2.822150600303542E+02
   2.820299586538143E+02   2.818428025546659E+02   2.816535687010795E+02
   2.814622338374644E+02   2.812687744832270E+02   2.810731669315508E+02
   2.808753872481996E+02   2.806754112703379E+02   2.804732146053801E+02
   2.802687726298589E+02   2.800620604883226E+02   2.798530530922577E+02
   2.796417251190380E+02   2.794280510109057E+02   2.792120049739802E+02
   2.789935609772985E+02   2.787726927518910E+02   2.785493737898875E+02
   2.783235773436627E+02   2.780952764250167E+02   2.778644438043930E+02
   2.776310520101397E+02   2.773950733278083E+02   2.771564797994994E+02
   2.769152432232502E+02   2.766713351524683E+02   2.764247268954169E+02
   2.761753895147448E+02   2.759232938270720E+02   2.756684104026265E+02
   2.754107095649358E+02   2.751501613905776E+02   2.748867357089865E+02
   2.746204021023248E+02   2.743511299054131E+02   2.740788882057273E+02
   2.738036458434634E+02   2.735253714116698E+02   2.732440332564524E+02
   2.729595994772531E+02   2.726720379272019E+02   2.723813162135520E+02
   2.720874016981901E+02   2.717902614982342E+02   2.714898624867142E+02
   2.711861712933412E+02   2.708791543053683E+02   2.705687776685435E+02
   2.702550072881589E+02   2.699378088301998E+02   2.696171477225924E+02
   2.692929891565598E+02   2.689652980880800E+02   2.686340392394602E+02
   2.682991771010195E+02   2.679606759328886E+02   2.676184997669313E+02
   2.672726124087851E+02   2.669229774400305E+02   2.665695582204871E+02
   2.662123178906435E+02   2.658512193742200E+02   2.654862253808759E+02
   2.651172984090540E+02   2.647444007489737E+02   2.643674944857749E+02
   2.639865415028110E+02   2.636015034851060E+02   2.632123419229665E+02
   2.628190181157613E+02   2.624214931758695E+02   2.620197280327993E+02
   2.616136834374880E+02   2.612033199667772E+02   2.607885980280770E+02
   2.603694778642168E+02   2.599459195584893E+02   2.595178830398954E+02
   2.590853280885856E+02   2.586482143415118E+02   2.582065012982882E+02
   2.577601483272646E+02   2.573091146718257E+02   2.568533594569084E+02
   2.563928416957505E+02   2.559275202968729E+02   2.554573540712977E+02
   2.549823017400135E+02   2.545023219416834E+02   2.540173732406089E+02
   2.535274141349491E+02   2.530324030652018E+02   2.525322984229541E+02
   2.520270585599023E+02   2.515166417971494E+02   2.510010064347857E+02
   2.504801107617526E+02   2.499539130660045E+02   2.494223716449616E+02
   2.488854448162672E+02   2.483430909288527E+02   2.477952683743114E+02
   2.472419355985942E+02   2.466830511140230E+02   2.461185735116331E+02
   2.455484614738479E+02   2.449726737874882E+02   2.443911693571285E+02
   2.438039072187948E+02   2.432108465540174E+02   2.426119467042400E+02
   2.420071671855879E+02   2.413964677040074E+02   2.407798081707707E+02
   2.401571487183599E+02   2.395284497167298E+02   2.388936717899539E+02
   2.382527758332634E+02   2.376057230304752E+02   2.369524748718192E+02
   2.362929931721668E+02   2.356272400896652E+02   2.349551781447794E+02
   2.342767702397498E+02   2.335919796784640E+02   2.329007701867491E+02
   2.322031059330868E+02   2.314989515497544E+02   2.307882721543960E+02
   2.300710333720234E+02   2.293472013574519E+02   2.286167428181718E+02
   2.278796250376570E+02   2.271358158991165E+02   2.263852839096834E+02
   2.256279982250481E+02   2.248639286745346E+02   2.240930457866194E+02
   2.233153208148972E+02   2.225307257644867E+02   2.217392334188837E+02
   2.209408173672539E+02   2.201354520321682E+02   2.193231126977802E+02
   2.185037755384377E+02   2.176774176477328E+02   2.168440170679841E+02
   2.160035528201465E+02   2.151560049341498E+02   2.143013544796560E+02
   2.134395835972345E+02   2.125706755299477E+02   2.116946146553410E+02
   2.108113865178349E+02   2.099209778615050E+02   2.090233766632480E+02
   2.081185721663230E+02   2.072065549142582E+02   2.062873167851178E+02
   2.053608510261128E+02   2.044271522885477E+02   2.034862166630930E+02
   2.025380417153655E+02   2.015826265218114E+02   2.006199717058687E+02
   1.996500794744011E+02   1.986729536543842E+02   1.976885997298278E+02
   1.966970248789183E+02   1.956982380113606E+02   1.946922498059018E+02
   1.936790727480150E+02   1.926587211677224E+02   1.916312112775387E+02
   1.905965612105045E+02   1.895547910582924E+02   1.885059229093567E+02
   1.874499808871008E+02   1.863869911880372E+02   1.853169821199081E+02
   1.842399841397391E+02   1.831560298917956E+02   1.820651542454073E+02
   1.809673943326332E+02   1.798627895857266E+02   1.787513817743681E+02
   1.776332150426317E+02   1.765083359456408E+02   1.753767934858829E+02
   1.742386391491358E+02   1.730939269399673E+02   1.719427134167671E+02
   1.707850577262633E+02   1.696210216374843E+02   1.684506695751136E+02
   1.672740686521949E+02   1.660912887021379E+02   1.649024023099726E+02
   1.637074848428075E+02   1.625066144794311E+02   1.612998722390118E+02
   1.600873420088374E+02   1.588691105710382E+02   1.576452676282433E+02
   1.564159058281050E+02   1.551811207866382E+02   1.539410111103139E+02
   1.526956784168458E+02   1.514452273546113E+02   1.501897656206412E+02
   1.489294039771197E+02   1.476642562663268E+02   1.463944394239621E+02
   1.451200734907855E+02   1.438412816225060E+02   1.425581900978565E+02
   1.412709283247870E+02   1.399796288447078E+02   1.386844273347210E+02
   1.373854626077671E+02   1.360828766106241E+02   1.347768144196908E+02
   1.334674242344858E+02   1.321548573688003E+02   1.308392682394322E+02
   1.295208143524403E+02   1.281996562868518E+02   1.268759576757576E+02
   1.255498851847348E+02   1.242216084875299E+02   1.228913002389434E+02
   1.215591360448547E+02   1.202252944293282E+02   1.188899567987448E+02
   1.175533074028994E+02   1.162155332930150E+02   1.148768242766178E+02
   1.135373728692252E+02   1.121973742428010E+02   1.108570261709293E+02
   1.095165289706680E+02   1.081760854410422E+02   1.068359007981393E+02
   1.054961826067775E+02   1.041571407087125E+02   1.028189871473614E+02
   1.014819360890193E+02   1.001462037405507E+02   9.881200826354448E+01
   9.747956968491914E+01   9.614910980397693E+01   9.482085209590512E+01
   9.349502161172921E+01   9.217184487473020E+01   9.085154977333873E+01
   8.953436545052863E+01   8.822052218973606E+01   8.691025129733666E+01
   8.560378498171994E+01   8.430135622900436E+01   8.300319867544481E+01
   8.170954647659049E+01   8.042063417325589E+01   7.913669655437812E+01
   7.785796851683548E+01   7.658468492231448E+01   7.531708045131596E+01
   7.405538945439912E+01   7.279984580077155E+01   7.155068272433630E+01
   7.030813266731919E+01   6.907242712160361E+01   6.784379646790882E+01
   6.662246981295615E+01   6.540867482477198E+01   6.420263756628707E+01
   6.300458232739735E+01   6.181473145565823E+01   6.063330518579425E+01
   5.946052146820871E+01   5.829659579668925E+01   5.714174103550936E+01
   5.599616724613298E+01   5.486008151373795E+01   5.373368777377585E+01
   5.261718663879666E+01   5.151077522576931E+01   5.041464698413520E+01
   4.932899152483869E+01   4.825399445058018E+01   4.718983718754502E+01
   4.613669681886380E+01   4.509474592006339E+01   4.406415239677286E+01
   4.304507932494850E+01   4.203768479388730E+01   4.104212175229854E+01
   4.005853785770460E+01   3.908707532944393E+01   3.812787080554782E+01
   3.718105520376341E+01   3.624675358699471E+01   3.532508503343016E+01
   3.441616251162604E+01   3.352009276080890E+01   3.263697617665934E+01
   3.176690670283423E+01   3.090997172847974E+01   3.006625199198268E+01
   2.923582149120041E+01   2.841874740040391E+01   2.761508999416029E+01
   2.682490257837287E+01   2.604823142868869E+01   2.528511573647223E+01
   2.453558756253521E+01   2.379967179880057E+01   2.307738613806693E+01
   2.236874105202809E+01   2.167373977768801E+01   2.099237831229914E+01
   2.032464541693698E+01   1.967052262880890E+01   1.902998428238045E+01
   1.840299753938510E+01   1.778952242776808E+01   1.718951188959739E+01
   1.660291183795729E+01   1.602966122282272E+01   1.546969210589332E+01
   1.492292974434871E+01   1.438929268346663E+01   1.386869285802695E+01
   1.336103570240539E+01   1.286622026924064E+01   1.238413935653985E+01
   1.191467964306720E+01   1.145772183184106E+01   1.101314080154577E+01
   1.058080576564419E+01   1.016058043895881E+01   9.752323211469559E+00
   9.355887329058215E+00   8.971121080911285E+00   8.597867993274804E+00
   8.235967029238017E+00   7.885252794205657E+00   7.545555746702764E+00
   7.216702414140670E+00   6.898515613157876E+00   6.590814674136238E+00
   6.293415669479684E+00   6.006131645230883E+00   5.728772855590469E+00
   5.461146999893286E+00   5.203059461587721E+00   4.954313548637796E+00
   4.714710735480611E+00   4.484050904849318E+00   4.262132590216433E+00
   4.048753217754706E+00   3.843709347461030E+00   3.646796912963032E+00
   3.457811459529781E+00   3.276548379810949E+00   3.102803146833537E+00
   2.936371543791230E+00   2.777049890168894E+00   2.624635263753818E+00
   2.478925718095568E+00   2.339720494988299E+00   2.206820231562657E+00
   2.080027161589058E+00   1.959145310610316E+00   1.843980684538923E+00
   1.734341451373154E+00   1.630038115706145E+00   1.530883685723310E+00
   1.436693832406013E+00   1.347287040682681E+00   1.262484752293417E+00
   1.182111500159436E+00   1.105995034075088E+00   1.033966437567551E+00
   9.658602357968835E-01   9.015144943977874E-01   8.407709091931487E-01
   7.834748867386413E-01   7.294756156871578E-01   6.786261289910535E-01
   6.307833569896496E-01   5.858081714583228E-01   5.435654207240519E-01
   5.039239559802889E-01   4.667566489610082E-01   4.319404011600660E-01
   3.993561448069547E-01   3.688888358337940E-01   3.404274390907913E-01
   3.138649060880950E-01   2.890981455611769E-01   2.660279871741790E-01
   2.445591386912120E-01   2.246001369592483E-01   2.060632930579160E-01
   1.888646319812990E-01   1.729238272246207E-01   1.581641306545525E-01
   1.445122980458672E-01   1.318985106692094E-01   1.202562933150723E-01
   1.095224291375869E-01   9.963687169860524E-02   9.054265458786354E-02
   8.218579898877551E-02   7.451521955182065E-02   6.748262892855282E-02
   6.104244130912730E-02   5.515167529501241E-02   4.976985642628540E-02
   4.485891966976905E-02   4.038311216029281E-02   3.630889647269334E-02
   3.260485468690315E-02   2.924159349268836E-02   2.619165056442286E-02
   2.342940241978760E-02   2.093097395957890E-02   1.867414986898606E-02
   1.663828804383653E-02   1.480423518851303E-02   1.315424471558632E-02
   1.167189706077605E-02   1.034202251071958E-02   9.150626625268525E-03
   8.084818320717375E-03   7.132740665555984E-03   6.283504426089508E-03
   5.527124385638600E-03   4.854458448061570E-03   4.257149524076432E-03
   3.727570187332204E-03   3.258770076418750E-03   2.844426009033112E-03
   2.478794765352944E-03   2.156668489316170E-03   1.873332648971904E-03
   1.624526490350130E-03   1.406405913388810E-03   1.215508693342767E-03
   1.048721966762371E-03   9.032518975472875E-04   7.765954357254340E-04
   6.665140794484872E-04   5.710095491983092E-04   4.883012823270056E-04
   4.168056557667149E-04   3.551168450026415E-04   3.019892281611907E-04
   2.563212452802245E-04   2.171406244563282E-04   1.835908885596803E-04
   1.549190585266914E-04   1.304644718404892E-04   1.096486376471348E-04
   9.196605299034198E-05   7.697590784003209E-05   6.429460990308292E-05
   5.358906360296346E-05   4.457064106568994E-05   3.698978642070562E-05
   3.063119821820789E-05   2.530953800910261E-05   2.086561737175182E-05
   1.716301652835564E-05   1.408509508727110E-05   1.153235499855858E-05
   9.420119421861903E-06   7.676495147997975E-06   6.240588454491803E-06
   5.060946789942978E-06   4.094201174966419E-06   3.303886511542853E-06
   2.659419150097339E-06   2.135213075312404E-06   1.709917939863857E-06
   1.365763903288629E-06   1.087999825324303E-06   8.644128243285105E-07
   6.849185474370242E-07   5.412127160750929E-07   4.264756147666620E-07
   3.351221895938974E-07   2.625913219732563E-07   2.051686504946721E-07
   1.598380352274689E-07   1.241574018177557E-07   9.615527339275954E-08
   7.424480302057692E-08   5.715256424950514E-08   4.385974776660549E-08
   3.355375384167900E-08   2.558846799115475E-08   1.945176588852607E-08
   1.473901729513601E-08   1.113155167079637E-08   8.379213790885398E-09
   6.286279458670721E-09   4.700122256278863E-09   3.502124922832978E-09
   2.600415799414707E-09   1.924083989723139E-09   1.418588360357994E-09
   1.042126928459232E-09   7.627760343926742E-10   5.562442640387703E-10
   4.041154913477940E-10   2.924796284284795E-10   2.108695341003049E-10
   1.514387597269992E-10   1.083280151869233E-10   7.717893771457390E-11
   5.476238135901045E-11   3.869538454493478E-11   2.722652719123866E-11
   1.907381500105641E-11   1.330274087955547E-11   9.234948642238225E-12
   6.380107432094569E-12   4.385315304272995E-12   2.997683903422698E-12
   2.036791331650611E-12   1.374490291913693E-12   9.201739794078714E-13
   6.100736371313299E-13   3.995196052761825E-13   2.573781292297471E-13
   1.620439505530506E-13   9.888170601062342E-14   5.663852471623739E-14
   0.000000000000000E+00   0.000000000000000E+00   0.000000000000000E+00
   0.000000000000000E+00   0.000000000000000E+00   0.000000000000000E+00
   0.000000000000000E+00   0.000000000000000E+00   0.000000000000000E+00
   0.000000000000000E+00   0.000000000000000E+00   0.000000000000000E+00
   0.000000000000000E+00   0.000000000000000E+00   0.000000000000000E+00
   0.000000000000000E+00   0.000000000000000E+00   0.000000000000000E+00
   0.000000000000000E+00   0.000000000000000E+00   0.000000000000000E+00
   0.000000000000000E+00   0.000000000000000E+00   0.000000000000000E+00
   0.000000000000000E+00   0.000000000000000E+00   0.000000000000000E+00
   0.000000000000000E+00   0.000000000000000E+00   0.000000000000000E+00
   0.000000000000000E+00   0.000000000000000E+00   0.000000000000000E+00
   0.000000000000000E+00   0.000000000000000E+00   0.000000000000000E+00
   0.000000000000000E+00   0.000000000000000E+00   0.000000000000000E+00
   0.000000000000000E+00   0.000000000000000E+00   0.000000000000000E+00
   0.000000000000000E+00   0.000000000000000E+00   0.000000000000000E+00
   0.000000000000000E+00   0.000000000000000E+00   0.000000000000000E+00
   0.000000000000000E+00   0.000000000000000E+00   0.000000000000000E+00
   0.000000000000000E+00   0.000000000000000E+00   0.000000000000000E+00
   0.000000000000000E+00   0.000000000000000E+00   0.000000000000000E+00
   0.000000000000000E+00   0.000000000000000E+00   0.000000000000000E+00
   0.000000000000000E+00   0.000000000000000E+00   0.000000000000000E+00
   0.000000000000000E+00   0.000000000000000E+00   0.000000000000000E+00
   0.000000000000000E+00   0.000000000000000E+00   0.000000000000000E+00
   0.000000000000000E+00   0.000000000000000E+00   0.000000000000000E+00
   0.000000000000000E+00   0.000000000000000E+00   0.000000000000000E+00
   0.000000000000000E+00   0.000000000000000E+00   0.000000000000000E+00
   0.000000000000000E+00   0.000000000000000E+00   0.000000000000000E+00
   0.000000000000000E+00   0.000000000000000E+00   0.000000000000000E+00
   0.000000000000000E+00   0.000000000000000E+00   0.000000000000000E+00
   0.000000000000000E+00   0.000000000000000E+00   0.000000000000000E+00
   0.000000000000000E+00   0.000000000000000E+00   0.000000000000000E+00
   0.000000000000000E+00   0.000000000000000E+00   0.000000000000000E+00
   0.000000000000000E+00   0.000000000000000E+00   0.000000000000000E+00
   0.000000000000000E+00   0.000000000000000E+00   0.000000000000000E+00
   0.000000000000000E+00   0.000000000000000E+00   0.000000000000000E+00
   0.000000000000000E+00   0.000000000000000E+00   0.000000000000000E+00
   0.000000000000000E+00   0.000000000000000E+00   0.000000000000000E+00
   0.000000000000000E+00   0.000000000000000E+00   0.000000000000000E+00
   0.000000000000000E+00   0.000000000000000E+00   0.000000000000000E+00
   0.000000000000000E+00   0.000000000000000E+00   0.000000000000000E+00
   0.000000000000000E+00   0.000000000000000E+00   0.000000000000000E+00
   0.000000000000000E+00   0.000000000000000E+00   0.000000000000000E+00
   0.000000000000000E+00   0.000000000000000E+00   0.000000000000000E+00
   0.000000000000000E+00   0.000000000000000E+00   0.000000000000000E+00
   0.000000000000000E+00   0.000000000000000E+00   0.000000000000000E+00
   0.000000000000000E+00   0.000000000000000E+00   0.000000000000000E+00
   0.000000000000000E+00   0.000000000000000E+00   0.000000000000000E+00
   0.000000000000000E+00   0.000000000000000E+00   0.000000000000000E+00
   0.000000000000000E+00   0.000000000000000E+00   0.000000000000000E+00
   0.000000000000000E+00   0.000000000000000E+00   0.000000000000000E+00
   0.000000000000000E+00   0.000000000000000E+00   0.000000000000000E+00
   0.000000000000000E+00   0.000000000000000E+00   0.000000000000000E+00
   0.000000000000000E+00   0.000000000000000E+00   0.000000000000000E+00
   0.000000000000000E+00   0.000000000000000E+00   0.000000000000000E+00
   0.000000000000000E+00   0.000000000000000E+00   0.000000000000000E+00
   0.000000000000000E+00   0.000000000000000E+00   0.000000000000000E+00
   0.000000000000000E+00   0.000000000000000E+00   0.000000000000000E+00
   0.000000000000000E+00   0.000000000000000E+00   0.000000000000000E+00
   0.000000000000000E+00   0.000000000000000E+00   0.000000000000000E+00
   0.000000000000000E+00   0.000000000000000E+00   0.000000000000000E+00
   0.000000000000000E+00   0.000000000000000E+00   0.000000000000000E+00
   0.000000000000000E+00   0.000000000000000E+00   0.000000000000000E+00
   0.000000000000000E+00   0.000000000000000E+00   0.000000000000000E+00
   0.000000000000000E+00   0.000000000000000E+00   0.000000000000000E+00
   0.000000000000000E+00   0.000000000000000E+00   0.000000000000000E+00
   0.000000000000000E+00   0.000000000000000E+00   0.000000000000000E+00
   0.000000000000000E+00   0.000000000000000E+00   0.000000000000000E+00
   0.000000000000000E+00   0.000000000000000E+00   0.000000000000000E+00
   0.000000000000000E+00   0.000000000000000E+00   0.000000000000000E+00
   0.000000000000000E+00   0.000000000000000E+00   0.000000000000000E+00
   0.000000000000000E+00   0.000000000000000E+00   0.000000000000000E+00
   0.000000000000000E+00   0.000000000000000E+00   0.000000000000000E+00
   0.000000000000000E+00   0.000000000000000E+00   0.000000000000000E+00
   0.000000000000000E+00   0.000000000000000E+00   0.000000000000000E+00
   0.000000000000000E+00   0.000000000000000E+00   0.000000000000000E+00
   0.000000000000000E+00   0.000000000000000E+00   0.000000000000000E+00
   0.000000000000000E+00   0.000000000000000E+00   0.000000000000000E+00
   0.000000000000000E+00   0.000000000000000E+00   0.000000000000000E+00
   0.000000000000000E+00   0.000000000000000E+00   0.000000000000000E+00
   0.000000000000000E+00   0.000000000000000E+00   0.000000000000000E+00
   0.000000000000000E+00   0.000000000000000E+00   0.000000000000000E+00
   0.000000000000000E+00   0.000000000000000E+00   0.000000000000000E+00
   0.000000000000000E+00   0.000000000000000E+00   0.000000000000000E+00
   0.000000000000000E+00   0.000000000000000E+00   0.000000000000000E+00
   0.000000000000000E+00   0.000000000000000E+00   0.000000000000000E+00
   0.000000000000000E+00   0.000000000000000E+00   0.000000000000000E+00
   0.000000000000000E+00   0.000000000000000E+00   0.000000000000000E+00
   0.000000000000000E+00   0.000000000000000E+00   0.000000000000000E+00
   0.000000000000000E+00   0.000000000000000E+00   0.000000000000000E+00
   0.000000000000000E+00   0.000000000000000E+00   0.000000000000000E+00
   0.000000000000000E+00   0.000000000000000E+00   0.000000000000000E+00
   0.000000000000000E+00   0.000000000000000E+00   0.000000000000000E+00
   0.000000000000000E+00   0.000000000000000E+00   0.000000000000000E+00
   0.000000000000000E+00   0.000000000000000E+00   0.000000000000000E+00
   0.000000000000000E+00   0.000000000000000E+00   0.000000000000000E+00
   0.000000000000000E+00   0.000000000000000E+00   0.000000000000000E+00
   0.000000000000000E+00   0.000000000000000E+00   0.000000000000000E+00
    </PP_AE_NLCC>
    <PP_AE_VLOC size="1095">
  -1.403386714408464E+05  -1.385949791687413E+05  -1.368729473899332E+05
  -1.351723070334534E+05  -1.334927923707861E+05  -1.318341409743488E+05
  -1.301960936764862E+05  -1.285783945289753E+05  -1.269807907630348E+05
  -1.254030327498244E+05  -1.238448739614449E+05  -1.223060709324168E+05
  -1.207863832216357E+05  -1.192855733748057E+05  -1.178034068873343E+05
  -1.163396521676930E+05  -1.148940805012296E+05  -1.134664660144292E+05
  -1.120565856396257E+05  -1.106642190801409E+05  -1.092891487758683E+05
  -1.079311598692750E+05  -1.065900401718322E+05  -1.052655801308588E+05
  -1.039575727967794E+05  -1.026658137907868E+05  -1.013901012729087E+05
  -1.001302359104690E+05  -9.888602084694221E+04  -9.765726167119360E+04
  -9.644376638710224E+04  -9.524534538356141E+04  -9.406181140485214E+04
  -9.289297952138189E+04  -9.173866710079208E+04  -9.059869377941830E+04
  -8.947288143411056E+04  -8.836105415440004E+04  -8.726303821501261E+04
  -8.617866204872409E+04  -8.510775621955279E+04  -8.405015339628504E+04
  -8.300568832632809E+04  -8.197419780989068E+04  -8.095552067448157E+04
  -7.994949774972585E+04  -7.895597184249607E+04  -7.797478771234753E+04
  -7.700579204726547E+04  -7.604883343970538E+04  -7.510376236293900E+04
  -7.417043114768861E+04  -7.324869395905331E+04  -7.233840677372270E+04
  -7.143942735747292E+04  -7.055161524294208E+04  -6.967483170768153E+04
  -6.880893975248079E+04  -6.795380407996110E+04  -6.710929107343459E+04
  -6.627526877602683E+04  -6.545160687005732E+04  -6.463817665667892E+04
  -6.383485103576663E+04  -6.304150448605833E+04  -6.225801304554271E+04
  -6.148425429208934E+04  -6.072010732431940E+04  -5.996545274271568E+04
  -5.922017263096519E+04  -5.848415053753540E+04  -5.775727145747811E+04
  -5.703942181445899E+04  -5.633048944301213E+04  -5.563036357101297E+04
  -5.493893480237127E+04  -5.425609509993620E+04  -5.358173776861615E+04
  -5.291575743870741E+04  -5.225805004942998E+04  -5.160851283266739E+04
  -5.096704429690929E+04  -5.033354421139334E+04  -4.970791359044397E+04
  -4.909005467800499E+04  -4.847987093236595E+04  -4.787726701107666E+04
  -4.728214875604994E+04  -4.669442317884957E+04  -4.611399844615997E+04
  -4.554078386543717E+04  -4.497468987073878E+04  -4.441562800872803E+04
  -4.386351092485377E+04  -4.331825234969972E+04  -4.277976708550649E+04
  -4.224797099285785E+04  -4.172278097753444E+04  -4.120411497752998E+04
  -4.069189195022874E+04  -4.018603185974300E+04  -3.968645566440653E+04
  -3.919308530442469E+04  -3.870584368967768E+04  -3.822465468767384E+04
  -3.774944311165535E+04  -3.728013470884914E+04  -3.681665614886512E+04
  -3.635893501223806E+04  -3.590689977911172E+04  -3.546047981806413E+04
  -3.501960537507098E+04  -3.458420756260672E+04  -3.415421834888015E+04
  -3.372957054720506E+04  -3.331019780550166E+04  -3.289603459592899E+04
  -3.248701620464632E+04  -3.208307872170146E+04  -3.168415903104416E+04
  -3.129019480066494E+04  -3.090112447285488E+04  -3.051688725458751E+04
  -3.013742310801961E+04  -2.976267274111018E+04  -2.939257759835617E+04
  -2.902707985164269E+04  -2.866612239120745E+04  -2.830964881671742E+04
  -2.795760342845560E+04  -2.760993121861871E+04  -2.726657786272119E+04
  -2.692748971110752E+04  -2.659261378056912E+04  -2.626189774606568E+04
  -2.593528993254903E+04  -2.561273930688946E+04  -2.529419546990073E+04
  -2.497960864846589E+04  -2.466892968775988E+04  -2.436211004356896E+04
  -2.405910177470554E+04  -2.375985753551729E+04  -2.346433056848946E+04
  -2.317247469693869E+04  -2.288424431779796E+04  -2.259959439449097E+04
  -2.231848044989517E+04  -2.204085855939198E+04  -2.176668534400351E+04
  -2.149591796361467E+04  -2.122851411027919E+04  -2.096443200160881E+04
  -2.070363037424501E+04  -2.044606847741119E+04  -2.019170606654560E+04
  -1.994050339701276E+04  -1.969242121789356E+04  -1.944742076585192E+04
  -1.920546375907819E+04  -1.896651239130762E+04  -1.873052932591261E+04
  -1.849747769006937E+04  -1.826732106899606E+04  -1.804002350026306E+04
  -1.781554946817383E+04  -1.759386389821531E+04  -1.737493215157766E+04
  -1.715872001974200E+04  -1.694519371913476E+04  -1.673431988584956E+04
  -1.652606557043357E+04  -1.632039823273932E+04  -1.611728573684021E+04
  -1.591669634600918E+04  -1.571859871775988E+04  -1.552296189894917E+04
  -1.532975532094080E+04  -1.513894879482903E+04  -1.495051250672125E+04
  -1.476441701308012E+04  -1.458063323612226E+04  -1.439913245927521E+04
  -1.421988632269045E+04  -1.404286681881192E+04  -1.386804628799984E+04
  -1.369539741420900E+04  -1.352489322072042E+04  -1.335650706592620E+04
  -1.319021263916690E+04  -1.302598395662018E+04  -1.286379535724100E+04
  -1.270362149875202E+04  -1.254543735368381E+04  -1.238921820546407E+04
  -1.223493964455603E+04  -1.208257756464403E+04  -1.193210815886715E+04
  -1.178350791609927E+04  -1.163675361727524E+04  -1.149182233176325E+04
  -1.134869141378145E+04  -1.120733849885990E+04  -1.106774150034584E+04
  -1.092987860595272E+04  -1.079372827435209E+04  -1.065926923180741E+04
  -1.052648046885045E+04  -1.039534123699825E+04  -1.026583104551121E+04
  -1.013792965819136E+04  -1.001161709022051E+04  -9.886873605037576E+03
  -9.763679711254630E+03  -9.642016159611456E+03  -9.521863939967914E+03
  -9.403204278333265E+03  -9.286018633933114E+03  -9.170288696312182E+03
  -9.055996382473249E+03  -8.943123834051761E+03  -8.831653414525523E+03
  -8.721567706458769E+03  -8.612849508780919E+03  -8.505481834098584E+03
  -8.399447906041727E+03  -8.294731156641950E+03  -8.191315223743884E+03
  -8.089183948448664E+03  -7.988321372588953E+03  -7.888711736235694E+03
  -7.790339475235342E+03  -7.693189218778189E+03  -7.597245786996593E+03
  -7.502494188593118E+03  -7.408919618498098E+03  -7.316507455556528E+03
  -7.225243260243306E+03  -7.135112772407157E+03  -7.046101909042540E+03
  -6.958196762089051E+03  -6.871383596258479E+03  -6.785648846888488E+03
  -6.700979117823315E+03  -6.617361179320547E+03  -6.534781965983992E+03
  -6.453228574722267E+03  -6.372688262732634E+03  -6.293148445510053E+03
  -6.214596694880827E+03  -6.137020737060700E+03  -6.060408450737115E+03
  -5.984747865175356E+03  -5.910027158347989E+03  -5.836234655087868E+03
  -5.763358825263798E+03  -5.691388281979078E+03  -5.620311779792174E+03
  -5.550118212959902E+03  -5.480796613701929E+03  -5.412336150487294E+03
  -5.344726126341885E+03  -5.277955977177167E+03  -5.212015270139535E+03
  -5.146893701980191E+03  -5.082581097445463E+03  -5.019067407686736E+03
  -4.956342708690576E+03  -4.894397199728020E+03  -4.833221201823331E+03
  -4.772805156241715E+03  -4.713139622995744E+03  -4.654215279370535E+03
  -4.596022918467013E+03  -4.538553447763520E+03  -4.481797887695079E+03
  -4.425747370250409E+03  -4.370393137586419E+03  -4.315726540659812E+03
  -4.261739037875799E+03  -4.208422193753478E+03  -4.155767677607942E+03
  -4.103767262248597E+03  -4.052412822693855E+03  -4.001696334901566E+03
  -3.951609874515484E+03  -3.902145615627055E+03  -3.853295829552765E+03
  -3.805052883626572E+03  -3.757409240007532E+03  -3.710357454501941E+03
  -3.663890175400381E+03  -3.618000142329074E+03  -3.572680185115597E+03
  -3.527923222668601E+03  -3.483722261871558E+03  -3.440070396490115E+03
  -3.396960806093193E+03  -3.354386754987383E+03  -3.312341591164608E+03
  -3.270818745262863E+03  -3.229811729539918E+03  -3.189314136859710E+03
  -3.149319639691349E+03  -3.109821989120617E+03  -3.070815013873676E+03
  -3.032292619352957E+03  -2.994248786685073E+03  -2.956677571780448E+03
  -2.919573104404755E+03  -2.882929587261800E+03  -2.846741295087922E+03
  -2.811002573757522E+03  -2.775707839399816E+03  -2.740851577526496E+03
  -2.706428342170252E+03  -2.672432755034075E+03  -2.638859504651019E+03
  -2.605703345554502E+03  -2.572959097458865E+03  -2.540621644450176E+03
  -2.508685934187041E+03  -2.477146977111376E+03  -2.445999845669002E+03
  -2.415239673539912E+03  -2.384861654878149E+03  -2.354861043561043E+03
  -2.325233152447928E+03  -2.295973352647937E+03  -2.267077072797022E+03
  -2.238539798343845E+03  -2.210357070844682E+03  -2.182524487266970E+03
  -2.155037699301640E+03  -2.127892412683896E+03  -2.101084386522504E+03
  -2.074609432637417E+03  -2.048463414905641E+03  -2.022642248615208E+03
  -1.997141899827241E+03  -1.971958384745888E+03  -1.947087769096182E+03
  -1.922526167509567E+03  -1.898269742917106E+03  -1.874314705950229E+03
  -1.850657314348943E+03  -1.827293872377426E+03  -1.804220730246843E+03
  -1.781434283545410E+03  -1.758930972675509E+03  -1.736707282297820E+03
  -1.714759740782392E+03  -1.693084919666510E+03  -1.671679433119343E+03
  -1.650539937413263E+03  -1.629663130401709E+03  -1.609045751003585E+03
  -1.588684578694095E+03  -1.568576433001842E+03  -1.548718173012285E+03
  -1.529106696877333E+03  -1.509738941331039E+03  -1.490611881211343E+03
  -1.471722528987789E+03  -1.453067934295080E+03  -1.434645183472495E+03
  -1.416451399108996E+03  -1.398483739594072E+03  -1.380739398674083E+03
  -1.363215605014231E+03  -1.345909621765912E+03  -1.328818746139518E+03
  -1.311940308982539E+03  -1.295271674362899E+03  -1.278810239157554E+03
  -1.262553432646114E+03  -1.246498716109662E+03  -1.230643582434460E+03
  -1.214985555720662E+03  -1.199522190895876E+03  -1.184251073333558E+03
  -1.169169818476174E+03  -1.154276071463021E+03  -1.139567506762745E+03
  -1.125041827810404E+03  -1.110696766649055E+03  -1.096530083575853E+03
  -1.082539566792511E+03  -1.068723032060146E+03  -1.055078322358445E+03
  -1.041603307549059E+03  -1.028295884043188E+03  -1.015153974473351E+03
  -1.002175527369209E+03  -9.893585168374581E+02  -9.767009422457013E+02
  -9.642008279102824E+02  -9.518562227879751E+02  -9.396652001715709E+02
  -9.276258573892188E+02  -9.157363155075356E+02  -9.039947190384136E+02
  -8.923992356494830E+02  -8.809480558782014E+02  -8.696393928494733E+02
  -8.584714819968247E+02  -8.474425807870196E+02  -8.365509684481685E+02
  -8.257949457011374E+02  -8.151728344943710E+02  -8.046829777420078E+02
  -7.943237390652309E+02  -7.840935025368699E+02  -7.739906724291568E+02
  -7.640136729646466E+02  -7.541609480702134E+02  -7.444309611341212E+02
  -7.348221947661167E+02  -7.253331505604898E+02  -7.159623488621012E+02
  -7.067083285352934E+02  -6.975696467356785E+02  -6.885448786847750E+02
  -6.796326174474133E+02  -6.708314737119202E+02  -6.621400755730224E+02
  -6.535570683174302E+02  -6.450811142120929E+02  -6.367108922950529E+02
  -6.284450981689072E+02  -6.202824437967940E+02  -6.122216573009193E+02
  -6.042614827635655E+02  -5.964006800305309E+02  -5.886380245170177E+02
  -5.809723070158934E+02  -5.734023335082975E+02  -5.659269249765986E+02
  -5.585449172196145E+02  -5.512551606701210E+02  -5.440565202145797E+02
  -5.369478750150588E+02  -5.299281183333554E+02  -5.229961573572168E+02
  -5.161509130287210E+02  -5.093913198746994E+02  -5.027163258392538E+02
  -4.961248921182598E+02  -4.896159929959109E+02  -4.831886156831955E+02
  -4.768417601583402E+02  -4.705744390091682E+02  -4.643856772773327E+02
  -4.582745123044289E+02  -4.522399935799264E+02  -4.462811825909210E+02
  -4.403971526736762E+02  -4.345869888668961E+02  -4.288497877667588E+02
  -4.231846573836417E+02  -4.175907170005371E+02  -4.120670970331066E+02
  -4.066129388913960E+02  -4.012273948431280E+02  -3.959096278786083E+02
  -3.906588115771665E+02  -3.854741299751470E+02  -3.803547774354182E+02
  -3.752999585183528E+02  -3.703088878542954E+02  -3.653807900174645E+02
  -3.605148994012782E+02  -3.557104600950838E+02  -3.509667257622602E+02
  -3.462829595196835E+02  -3.416584338185214E+02  -3.370924303263466E+02
  -3.325842398105451E+02  -3.281331620229914E+02  -3.237385055859824E+02
  -3.193995878793961E+02  -3.151157349290741E+02  -3.108862812963872E+02
  -3.067105699689791E+02  -3.025879522526645E+02  -2.985177876644621E+02
  -2.944994438267472E+02  -2.905322963625047E+02  -2.866157287916558E+02
  -2.827491324284621E+02  -2.789319062799666E+02  -2.751634569454645E+02
  -2.714431985169960E+02  -2.677705524808275E+02  -2.641449476199181E+02
  -2.605658199173525E+02  -2.570326124607208E+02  -2.535447753474362E+02
  -2.501017655909775E+02  -2.467030470280310E+02  -2.433480902265314E+02
  -2.400363723945814E+02  -2.367673772902368E+02  -2.335405951321475E+02
  -2.303555225110431E+02  -2.272116623020445E+02  -2.241085235777973E+02
  -2.210456215224154E+02  -2.180224773462224E+02  -2.150386182012809E+02
  -2.120935770976978E+02  -2.091868928207092E+02  -2.063181098485156E+02
  -2.034867782708800E+02  -2.006924537084699E+02  -1.979346972329368E+02
  -1.952130752877309E+02  -1.925271596096445E+02  -1.898765271510785E+02
  -1.872607600030200E+02  -1.846794453187437E+02  -1.821321752382144E+02
  -1.796185468132010E+02  -1.771381619330945E+02  -1.746906272514284E+02
  -1.722755541131003E+02  -1.698925584822928E+02  -1.675412608711001E+02
  -1.652212862688518E+02  -1.629322640721378E+02  -1.606738280155438E+02
  -1.584456161030861E+02  -1.562472705403602E+02  -1.540784376674030E+02
  -1.519387678922687E+02  -1.498279156253292E+02  -1.477455392143013E+02
  -1.456913008800082E+02  -1.436648666528762E+02  -1.416659063101846E+02
  -1.396940933140626E+02  -1.377491047502560E+02  -1.358306212676567E+02
  -1.339383270186196E+02  -1.320719096000630E+02  -1.302310599953726E+02
  -1.284154725171145E+02  -1.266248447505685E+02  -1.248588774980934E+02
  -1.231172747243376E+02  -1.213997435023079E+02  -1.197059939602994E+02
  -1.180357392297150E+02  -1.163886953937753E+02  -1.147645814371317E+02
  -1.131631191964076E+02  -1.115840333116676E+02  -1.100270511788349E+02
  -1.084919029030717E+02  -1.069783212531302E+02  -1.054860416166963E+02
  -1.040148019567286E+02  -1.025643427688176E+02  -1.011344070395682E+02
  -9.972474020602530E+01  -9.833509011615160E+01  -9.696520699036815E+01
  -9.561484338417677E+01  -9.428375415186549E+01  -9.297169641131683E+01
  -9.167842950992272E+01  -9.040371499161851E+01  -8.914731656504516E+01
  -8.790900007284729E+01  -8.668853346211145E+01  -8.548568675595592E+01
  -8.430023202627333E+01  -8.313194336763223E+01  -8.198059687234056E+01
  -8.084597060667096E+01  -7.972784458825460E+01  -7.862600076463521E+01
  -7.754022299298853E+01  -7.647029702099823E+01  -7.541601046888972E+01
  -7.437715281261032E+01  -7.335351536815142E+01  -7.234489127700311E+01
  -7.135107549272938E+01  -7.037186476865263E+01  -6.940705764663313E+01
  -6.845645444692579E+01  -6.751985725910130E+01  -6.659706993400592E+01
  -6.568789807674509E+01  -6.479214904066212E+01  -6.390963192229245E+01
  -6.304015755726267E+01  -6.218353851710850E+01  -6.133958910698126E+01
  -6.050812536420839E+01  -5.968896505767816E+01  -5.888192768801075E+01
  -5.808683448847755E+01  -5.730350842663324E+01  -5.653177420661623E+01
  -5.577145827207957E+01  -5.502238880970401E+01  -5.428439575325410E+01
  -5.355731078812587E+01  -5.284096735634159E+01  -5.213520066194175E+01
  -5.143984767672710E+01  -5.075474714629388E+01  -5.007973959631997E+01
  -4.941466733904111E+01  -4.875937447986928E+01  -4.811370692409889E+01
  -4.747751238364694E+01  -4.685064038377357E+01  -4.623294226972843E+01
  -4.562427121327141E+01  -4.502448221901153E+01  -4.443343213051227E+01
  -4.385097963611172E+01  -4.327698527440436E+01  -4.271131143933526E+01
  -4.215382238485531E+01  -4.160438422909091E+01  -4.106286495797964E+01
  -4.052913442832735E+01  -4.000306437024256E+01  -3.948452838890638E+01
  -3.897340196563854E+01  -3.846956245822139E+01  -3.797288910044726E+01
  -3.748326300085517E+01  -3.700056714062850E+01  -3.652468637062495E+01
  -3.605550740751349E+01  -3.559291882899863E+01  -3.513681106811097E+01
  -3.468707640655033E+01  -3.424360896706728E+01  -3.380630470487509E+01
  -3.337506139808586E+01  -3.294977863716650E+01  -3.253035781341821E+01
  -3.211670210647932E+01  -3.170871647086263E+01  -3.130630762153420E+01
  -3.090938401854844E+01  -3.051785585075724E+01  -3.013163501861003E+01
  -2.975063511606998E+01  -2.937477141167065E+01  -2.900396082874104E+01
  -2.863812192483061E+01  -2.827717487036630E+01  -2.792104142657909E+01
  -2.756964492273605E+01  -2.722291023271794E+01  -2.688076375098485E+01
  -2.654313336797200E+01  -2.620994844496072E+01  -2.588113978847037E+01
  -2.555663962421801E+01  -2.523638157069381E+01  -2.492030061239991E+01
  -2.460833307280222E+01  -2.430041658704405E+01  -2.399649007446946E+01
  -2.369649371100753E+01  -2.340036890146338E+01  -2.310805825176562E+01
  -2.281950554121771E+01  -2.253465569479752E+01  -2.225345475555280E+01
  -2.197584985713449E+01  -2.170178919651194E+01  -2.143122200691044E+01
  -2.116409853100993E+01  -2.090036999444406E+01  -2.063998857963311E+01
  -2.038290739998647E+01  -2.012908047450537E+01  -1.987846270281474E+01
  -1.963100984065284E+01  -1.938667847584207E+01  -1.914542600476493E+01
  -1.890721060936453E+01  -1.867199123468761E+01  -1.843972756698692E+01
  -1.821038001239422E+01  -1.798390967617696E+01  -1.776027834258598E+01
  -1.753944845530140E+01  -1.732138309848108E+01  -1.710604597841362E+01
  -1.689340140577661E+01  -1.668341427849858E+01  -1.647605006522032E+01
  -1.627127478935195E+01  -1.606905501371728E+01  -1.586935782577865E+01
  -1.567215082343154E+01  -1.547740210135852E+01  -1.528508023792996E+01
  -1.509515428263899E+01  -1.490759374405595E+01  -1.472236857828783E+01
  -1.453944917792671E+01  -1.435880636147170E+01  -1.418041136320693E+01
  -1.400423582351916E+01  -1.383025177963773E+01  -1.365843165677897E+01
  -1.348874825967842E+01  -1.332117476449253E+01  -1.315568471105343E+01
  -1.299225199545900E+01  -1.283085086298147E+01  -1.267145590127851E+01
  -1.251404203388987E+01  -1.235858451400456E+01  -1.220505891848298E+01
  -1.205344114211898E+01  -1.190370739212840E+01  -1.175583418284961E+01
  -1.160979833064361E+01  -1.146557694898109E+01  -1.132314744370414E+01
  -1.118248750845229E+01  -1.104357512024134E+01  -1.090638853518552E+01
  -1.077090628435355E+01  -1.063710716969873E+01  -1.050497026032345E+01
  -1.037447488865039E+01  -1.024560064617366E+01  -1.011832738087491E+01
  -9.992635192933751E+00  -9.868504431588546E+00  -9.745915691751327E+00
  -9.624849810735196E+00  -9.505287865050700E+00  -9.387211167266777E+00
  -9.270601262933177E+00  -9.155439927560485E+00  -9.041709163654939E+00
  -8.929391197805343E+00  -8.818468477819023E+00  -8.708923669905376E+00
  -8.600739655904020E+00  -8.493899530556348E+00  -8.388386598818471E+00
  -8.284184373213906E+00  -8.181276571224933E+00  -8.079647112720965E+00
  -7.979280117423118E+00  -7.880159902403698E+00  -7.782270979619630E+00
  -7.685598053479318E+00  -7.590126018441411E+00  -7.495839956626026E+00
  -7.402725135506774E+00  -7.310767005635068E+00  -7.219951198287017E+00
  -7.130263523245408E+00  -7.041689966579254E+00  -6.954216688451292E+00
  -6.867830020953345E+00  -6.782516465968981E+00  -6.698262693062889E+00
  -6.615055537396989E+00  -6.532881997672391E+00  -6.451729234097252E+00
  -6.371584566380026E+00  -6.292435471747615E+00  -6.214269582988411E+00
  -6.137074686519533E+00  -6.060838720478292E+00  -5.985549772837349E+00
  -5.911196079543239E+00  -5.837766022678222E+00  -5.765248128644798E+00
  -5.693631066372934E+00  -5.622903645549538E+00  -5.553054814869854E+00
  -5.484073660310743E+00  -5.415949403425242E+00  -5.348671399658452E+00
  -5.282229136684312E+00  -5.216612232762959E+00  -5.151810435118639E+00
  -5.087813618337613E+00  -5.024611782786081E+00  -4.962195053047741E+00
  -4.900553676380662E+00  -4.839678021193498E+00  -4.779558575540441E+00
  -4.720185945635001E+00  -4.661550854382247E+00  -4.603644139929157E+00
  -4.546456754233154E+00  -4.489979761648247E+00  -4.434204337528866E+00
  -4.379121766851013E+00  -4.324723442850448E+00  -4.271000865677953E+00
  -4.217945641071140E+00  -4.165549479042860E+00  -4.113804192585899E+00
  -4.062701696393681E+00  -4.012234005596993E+00  -3.962393234516265E+00
  -3.913171595429448E+00  -3.864561397355184E+00  -3.816555044851023E+00
  -3.769145036826677E+00  -3.722323965371903E+00  -3.676084514599028E+00
  -3.630419459499840E+00  -3.585321664816619E+00  -3.540784083927292E+00
  -3.496799757744335E+00  -3.453361813627417E+00  -3.410463464309556E+00
  -3.368098006836550E+00  -3.326258821519671E+00  -3.284939370901283E+00
  -3.244133198733369E+00  -3.203833928968748E+00  -3.164035264764750E+00
  -3.124730987499383E+00  -3.085914955799606E+00  -3.047581104581748E+00
  -3.009723444103849E+00  -2.972336059029697E+00  -2.935413107504597E+00
  -2.898948820242529E+00  -2.862937499624698E+00  -2.827373518809288E+00
  -2.792251320852215E+00  -2.757565417838890E+00  -2.723310390026680E+00
  -2.689480884998074E+00  -2.656071616824381E+00  -2.623077365239753E+00
  -2.590492974825539E+00  -2.558313354204724E+00  -2.526533475246385E+00
  -2.495148372280063E+00  -2.464153141319829E+00  -2.433542939298066E+00
  -2.403312983308691E+00  -2.373458549859839E+00  -2.343974974135814E+00
  -2.314857649268173E+00  -2.286102025615929E+00  -2.257703610054631E+00
  -2.229657965274313E+00  -2.201960709086173E+00  -2.174607513737816E+00
  -2.147594105237062E+00  -2.120916262684104E+00  -2.094569817611995E+00
  -2.068550653335325E+00  -2.042854704306952E+00  -2.017477955482789E+00
  -1.992416441694415E+00  -1.967666247029516E+00  -1.943223504220033E+00
  -1.919084394037866E+00  -1.895245144698139E+00  -1.871702031269827E+00
  -1.848451375093737E+00  -1.825489543207721E+00  -1.802812947778995E+00
  -1.780418045543557E+00  -1.758301337252524E+00  -1.736459367125373E+00
  -1.714888722309985E+00  -1.693586032349347E+00  -1.672547968654946E+00
  -1.651771243986641E+00  -1.631252611939037E+00  -1.610988866434240E+00
  -1.590976841220872E+00  -1.571213409379367E+00  -1.551695482833362E+00
  -1.532420011867185E+00  -1.513383984649342E+00  -1.494584426761891E+00
  -1.476018400735708E+00  -1.457683005591476E+00  -1.439575376386417E+00
  -1.421692683766640E+00  -1.404032133525038E+00  -1.386590966164701E+00
  -1.369366456467726E+00  -1.352355913069402E+00  -1.335556678037687E+00
  -1.318966126457885E+00  -1.302581666022516E+00  -1.286400736626246E+00
  -1.270420809965873E+00  -1.254639389145287E+00  -1.239054008285290E+00
  -1.223662233362266E+00  -1.208461656824014E+00  -1.193449904889687E+00
  -1.178624633538262E+00  -1.163983522960378E+00  -1.149524287195913E+00
  -1.135244666958682E+00  -1.121142431027840E+00  -1.107215375899260E+00
  -1.093461325441211E+00  -1.079878130554352E+00  -1.066463668835917E+00
  -1.053215844248071E+00  -1.040132583040385E+00  -1.027211848738639E+00
  -1.014451618366108E+00  -1.001849898111443E+00  -9.894047189308054E-01
  -9.771141362402098E-01  -9.649762296116582E-01  -9.529891024730898E-01
  -9.411508818120218E-01  -9.294597189845755E-01  -9.179137849228269E-01
  -9.065112767574595E-01  -8.952504128233776E-01  -8.841294335876803E-01
  -8.731466013747347E-01  -8.623002000946668E-01  -8.515885349752074E-01
  -8.410099322968919E-01  -8.305627391315287E-01  -8.202453230839295E-01
  -8.100560720368500E-01  -7.999933938990811E-01  -7.900557163566949E-01
  -7.802414866273560E-01  -7.705491712177015E-01  -7.609772556837325E-01
  -7.515242443941708E-01  -7.421886602967730E-01  -7.329690446875300E-01
  -7.238639569827441E-01  -7.148719744939408E-01  -7.059916922055592E-01
  -6.972217225554285E-01  -6.885606952179468E-01  -6.800072568899709E-01
  -6.715600710793632E-01  -6.632178178971369E-01  -6.549791938472070E-01
  -6.468429116288813E-01  -6.388076999315083E-01  -6.308723032369153E-01
  -6.230354816232213E-01  -6.152960105711082E-01  -6.076526807724759E-01
  -6.001042979414920E-01  -5.926496826279846E-01  -5.852876700331416E-01
  -5.780171098275194E-01  -5.708368659712929E-01  -5.637458165367498E-01
  -5.567428535329914E-01  -5.498268827327984E-01  -5.429968235016651E-01
  -5.362516086289395E-01  -5.295901841610734E-01  -5.230115092369434E-01
  -5.165145559252055E-01  -5.100983090636892E-01  -5.037617661007672E-01
  -4.975039369387085E-01  -4.913238437789771E-01  -4.852205209694414E-01
  -4.791930148534969E-01  -4.732403836210489E-01  -4.673616971613559E-01
  -4.615560369177001E-01  -4.558224957438547E-01  -4.501601777623483E-01
  -4.445681982244753E-01  -4.390456833720550E-01  -4.335917703009077E-01
  -4.282056068260183E-01  -4.228863513483876E-01  -4.176331727235240E-01
  -4.124452501315789E-01  -4.073217729490940E-01  -4.022619406223342E-01
  -3.972649625422057E-01  -3.923300579207163E-01  -3.874564556689779E-01
  -3.826433942767246E-01  -3.778901216933206E-01  -3.731958952102552E-01
  -3.685599813450895E-01  -3.639816557268490E-01  -3.594602029828433E-01
  -3.549949166268803E-01  -3.505850989488837E-01  -3.462300609058688E-01
  -3.419291220142802E-01  -3.376816102436675E-01  -3.334868619116730E-01
  -3.293442215803372E-01  -3.252530419536793E-01  -3.212126837765585E-01
  -3.172225157347909E-01  -3.132819143565002E-01  -3.093902639147054E-01
  -3.055469563311066E-01  -3.017513910810741E-01  -2.980029750998166E-01
  -2.943011226897095E-01  -2.906452554287837E-01  -2.870348020803409E-01
  -2.834691985036994E-01  -2.799478875660473E-01  -2.764703190553852E-01
  -2.730359495945593E-01  -2.696442425563536E-01  -2.662946679796420E-01
  -2.629867024865837E-01  -2.597198292008389E-01  -2.564935376668114E-01
  -2.533073237698845E-01  -2.501606896576538E-01  -2.470531436621385E-01
  -2.439842002229535E-01  -2.409533798114435E-01  -2.379602088557524E-01
  -2.350042196668284E-01  -2.320849503653477E-01  -2.292019448095415E-01
  -2.263547525239273E-01  -2.235429286289173E-01  -2.207660337713066E-01
  -2.180236340556252E-01  -2.153153009763371E-01  -2.126406113508892E-01
  -2.099991472535857E-01  -2.073904959502867E-01  -2.048142498339196E-01
  -2.022700063607864E-01  -1.997573679876690E-01  -1.972759421097093E-01
  -1.948253409990648E-01  -1.924051817443270E-01  -1.900150861906878E-01
  -1.876546808808549E-01  -1.853235969966962E-01  -1.830214703016115E-01
  -1.807479410836219E-01  -1.785026540991608E-01  -1.762852585175695E-01
  -1.740954078662768E-01  -1.719327599766626E-01  -1.697969769305951E-01
  -1.676877250076272E-01  -1.656046746328555E-01  -1.635475003254205E-01
  -1.615158806476509E-01  -1.595094981548395E-01  -1.575280393456391E-01
  -1.555711946130800E-01  -1.536386581961913E-01  -1.517301281322257E-01
  -1.498453062094784E-01  -1.479838979206886E-01  -1.461456124170249E-01
  -1.443301624626369E-01  -1.425372643897753E-01  -1.407666380544693E-01
  -1.390180067927509E-01  -1.372910973774285E-01  -1.355856399753923E-01
  -1.339013681054530E-01  -1.322380185967050E-01  -1.305953315474027E-01
  -1.289730502843533E-01  -1.273709213228085E-01  -1.257886943268583E-01
  -1.242261220703161E-01  -1.226829603980869E-01  -1.211589681880207E-01
    </PP_AE_VLOC>
  </PP_PAW>
</UPF>
